INCHIKEY: JLYXXMFPNIAWKQ-CDRYSYESSA-N
NAME: beta-Hexachlorocyclohexane
RETENTION_INDEX: None
RETENTION_TIME: None
NUM PEAKS: 3
287.860062 0.5197902919172391
289.857112 1.0
291.854162 0.799740875320779

INCHIKEY: JLYXXMFPNIAWKQ-DCLYFUHFSA-N
NAME: epsilon-Hexachlorocyclohexane
RETENTION_INDEX: None
RETENTION_TIME: None
NUM PEAKS: 3
287.860062 0.5197902919172391
289.857112 1.0
291.854162 0.799740875320779

INCHIKEY: JLYXXMFPNIAWKQ-GNIYUCBRSA-N
NAME: Lindane
RETENTION_INDEX: None
RETENTION_TIME: None
NUM PEAKS: 3
287.860062 0.5197902919172391
289.857112 1.0
291.854162 0.799740875320779

INCHIKEY: JLYXXMFPNIAWKQ-GPIVLXJGSA-N
NAME: delta-Hexachlorocyclohexane
RETENTION_INDEX: None
RETENTION_TIME: None
NUM PEAKS: 3
287.860062 0.5197902919172391
289.857112 1.0
291.854162 0.799740875320779

INCHIKEY: JLYXXMFPNIAWKQ-SHFUYGGZSA-N
NAME: alpha-1,2,3,4,5,6-Hexachlorocyclohexane
RETENTION_INDEX: None
RETENTION_TIME: None
NUM PEAKS: 3
287.860062 0.5197902919172391
289.857112 1.0
291.854162 0.799740875320779

INCHIKEY: PQRRSJBLKOPVJV-UHFFFAOYSA-N
NAME: alpha-1,2-Dibromo-4-(1,2-dibromoethyl)cyclohexane
RETENTION_INDEX: None
RETENTION_TIME: None
NUM PEAKS: 3
108.0939 0.951856441981195
265.93056 0.5117068275371224
267.92852 1.0

INCHIKEY: LHMRXAIRPKSGDE-UHFFFAOYSA-N
NAME: 1,2-Benzanthraquinone
RETENTION_INDEX: None
RETENTION_TIME: None
NUM PEAKS: 3
230.073164 0.3429458923806505
258.068078 1.0
259.071432 0.19844786352000102

INCHIKEY: FNELVJVBIYMIMC-UHFFFAOYSA-N
NAME: Ethiprole
RETENTION_INDEX: None
RETENTION_TIME: None
NUM PEAKS: 3
366.943494 0.22714874637414556
395.982619 0.30334688613292043
397.979669 0.1941852499957654

INCHIKEY: HBPDKDSFLXWOAE-UHFFFAOYSA-N
NAME: Tebuthiuron
RETENTION_INDEX: None
RETENTION_TIME: None
NUM PEAKS: 3
170.075193 0.43676980812876776
171.083018 0.21936305758818325
228.104481 0.5240498924815934

INCHIKEY: HZRSNVGNWUDEFX-UHFFFAOYSA-N
NAME: Pyraclostrobin
RETENTION_INDEX: None
RETENTION_TIME: None
NUM PEAKS: 3
104.050024 1.0
193.016864 0.6491132004210651
387.09858 0.6098215801238401

INCHIKEY: IYAZLDLPUNDVAG-UHFFFAOYSA-N
NAME: Octrizole
RETENTION_INDEX: None
RETENTION_TIME: None
NUM PEAKS: 3
105.045273 0.65728265183785
252.113686 0.6497109000629087
323.199761 1.0

INCHIKEY: MLKCGVHIFJBRCD-UHFFFAOYSA-N
NAME: Carfentrazone-ethyl
RETENTION_INDEX: None
RETENTION_TIME: None
NUM PEAKS: 3
141.985979 0.1371970840650841
411.036427 0.4061336584453865
413.033477 0.2616747841563405

INCHIKEY: OCWYEMOEOGEQAN-UHFFFAOYSA-N
NAME: Bumetrizole
RETENTION_INDEX: None
RETENTION_TIME: None
NUM PEAKS: 3
139.0063 0.22869352154597525
315.113838 1.0
317.110888 0.320283796733354

INCHIKEY: OORLZFUTLGXMEF-UHFFFAOYSA-N
NAME: Sulfentrazone
RETENTION_INDEX: None
RETENTION_TIME: None
NUM PEAKS: 3
306.996495 1.0
308.993545 0.6378625052010115
385.981869 0.14495282664648462

INCHIKEY: UWSMKYBKUPAEJQ-UHFFFAOYSA-N
NAME: 2,4-Di-tert-butyl-6-(5-chloro-2H-benzotriazol-2-yl)phenol
RETENTION_INDEX: None
RETENTION_TIME: None
NUM PEAKS: 3
139.0063 0.45635040982118746
357.160788 1.0
359.157838 0.32488425456025766

INCHIKEY: YXKMMRDKEKCERS-UHFFFAOYSA-N
NAME: Cyazofamid
RETENTION_INDEX: None
RETENTION_TIME: None
NUM PEAKS: 3
216.032849 1.0
217.036203 0.12180410249659275
218.029899 0.3168587204122026

INCHIKEY: ZOCSXAVNDGMNBV-UHFFFAOYSA-N
NAME: Fipronil
RETENTION_INDEX: None
RETENTION_TIME: None
NUM PEAKS: 3
366.943494 1.0
368.940544 0.6510350735690544
435.938703 0.46550881642911973

INCHIKEY: AHJKRLASYNVKDZ-UHFFFAOYSA-N
NAME: 4,4'-Dichlorodiphenyldichloroethane
RETENTION_INDEX: None
RETENTION_TIME: None
NUM PEAKS: 3
111.000152 0.6811931369698396
235.008129 1.0
319.950708 0.7217300461634408

INCHIKEY: ALDJIKXAHSDLLB-UHFFFAOYSA-N
NAME: 2,2',3,5'-Tetrachlorobiphenyl
RETENTION_INDEX: None
RETENTION_TIME: None
NUM PEAKS: 3
289.922358 0.7724611730376778
291.919408 1.0
293.916458 0.4739272500704606

INCHIKEY: AMJYFQPBRAAINT-UHFFFAOYSA-N
NAME: 2,2',3,4',5,5'-Hexachloro-4-methoxybiphenyl
RETENTION_INDEX: None
RETENTION_TIME: None
NUM PEAKS: 3
387.854976 0.5208226743594901
389.852026 1.0
391.849076 0.8046514767358857

INCHIKEY: AMRQXHFXNZFDCH-UHFFFAOYSA-N
NAME: Carbetamide
RETENTION_INDEX: None
RETENTION_TIME: None
NUM PEAKS: 3
77.039125 0.4032519783224357
92.050024 1.0
236.11609 0.5938872867640737

INCHIKEY: ARXHIJMGSIYYRZ-UHFFFAOYSA-N
NAME: 2,3,3',4',6-Pentachlorobiphenyl
RETENTION_INDEX: None
RETENTION_TIME: None
NUM PEAKS: 3
323.883385 0.6163536503955703
325.880435 1.0
327.877485 0.635306146866448

INCHIKEY: BCTQJXQXJVLSIG-UHFFFAOYSA-N
NAME: Mepronil
RETENTION_INDEX: None
RETENTION_TIME: None
NUM PEAKS: 3
91.054775 0.26477180657513566
119.049689 1.0
269.141577 0.561941712390152

INCHIKEY: BQENMISTWGTJIJ-UHFFFAOYSA-N
NAME: 2,3,3',4,5-Pentachlorobiphenyl
RETENTION_INDEX: None
RETENTION_TIME: None
NUM PEAKS: 3
323.883385 0.6163536503955703
325.880435 1.0
327.877485 0.635306146866448

INCHIKEY: BQYJATMQXGBDHF-UHFFFAOYSA-N
NAME: Difenoconazole
RETENTION_INDEX: None
RETENTION_TIME: None
NUM PEAKS: 3
82.040522 0.9199734490644754
111.000152 1.0
405.064693 0.7971822939491017

INCHIKEY: BZMIHNKNQJJVRO-UHFFFAOYSA-N
NAME: Benzoximate
RETENTION_INDEX: None
RETENTION_TIME: None
NUM PEAKS: 3
77.039125 0.242275683725397
105.034039 1.0
363.087346 0.17487436100669418

INCHIKEY: BZTYNSQSZHARAZ-UHFFFAOYSA-N
NAME: 2,4,4'-Trichlorobiphenyl
RETENTION_INDEX: None
RETENTION_TIME: None
NUM PEAKS: 3
255.961331 1.0
257.958381 0.9717051124840215
259.955431 0.3011465289517408

INCHIKEY: CHIFOSRWCNZCFN-UHFFFAOYSA-N
NAME: Pendimethalin
RETENTION_INDEX: None
RETENTION_TIME: None
NUM PEAKS: 3
71.086075 0.24600964142935078
252.098428 0.11273371452048267
281.137553 0.5711766531441292

INCHIKEY: CIEXPHRYOLIQQD-UHFFFAOYSA-N
NAME: Furalaxyl
RETENTION_INDEX: None
RETENTION_TIME: None
NUM PEAKS: 3
95.013303 1.0
105.070425 0.15463227162336513
301.131405 0.3842410763852752

INCHIKEY: CIFWZNRJIBNXRE-UHFFFAOYSA-N
NAME: Mepanipyrim
RETENTION_INDEX: None
RETENTION_TIME: None
NUM PEAKS: 3
77.039125 0.3577842826584314
222.103122 0.46970994571418934
223.110947 1.0

INCHIKEY: CKUBKYSLNCKBOI-UHFFFAOYSA-N
NAME: 2,3',4,6-Tetrachlorobiphenyl
RETENTION_INDEX: None
RETENTION_TIME: None
NUM PEAKS: 3
289.922358 0.7724611730376778
291.919408 1.0
293.916458 0.4739272500704606

INCHIKEY: CLSVJBIHYWPGQY-UHFFFAOYSA-N
NAME: Spirotetramat
RETENTION_INDEX: None
RETENTION_TIME: None
NUM PEAKS: 3
105.070425 0.14828710860078054
372.181094 1.0
373.184448 0.22652949942532669

INCHIKEY: CVUGPAFCQJIYDT-UHFFFAOYSA-N
NAME: 2,4'-Dichlorodiphenyltrichloroethane
RETENTION_INDEX: None
RETENTION_TIME: None
NUM PEAKS: 3
235.008129 1.0
237.005179 0.6492673009360161
318.942883 0.7090067254635851

INCHIKEY: DCMURXAZTZQAFB-UHFFFAOYSA-N
NAME: 2,2',5-Trichlorobiphenyl
RETENTION_INDEX: None
RETENTION_TIME: None
NUM PEAKS: 3
220.992479 0.5194753067777542
255.961331 1.0
257.958381 0.9717051124840215

INCHIKEY: DDVNRFNDOPPVQJ-HQJQHLMTSA-N
NAME: Transfluthrin
RETENTION_INDEX: None
RETENTION_TIME: None
NUM PEAKS: 3
163.008129 1.0
163.017087 0.37499940570630613
165.005179 0.6415265794161826

INCHIKEY: DIRFUJHNVNOBMY-UHFFFAOYSA-N
NAME: Fenobucarb
RETENTION_INDEX: None
RETENTION_TIME: None
NUM PEAKS: 3
133.101725 0.15867263789645591
149.096639 0.5378792712377015
207.125927 0.4350517826391998

INCHIKEY: DTAPQAJKAFRNJB-UHFFFAOYSA-N
NAME: Promecarb
RETENTION_INDEX: None
RETENTION_TIME: None
NUM PEAKS: 3
133.101725 0.2501146556458367
149.096639 0.4598565429481018
207.125927 0.49042229239708024

INCHIKEY: DTDSAWVUFPGDMX-UHFFFAOYSA-N
NAME: Spirodiclofen
RETENTION_INDEX: None
RETENTION_TIME: None
NUM PEAKS: 3
99.080989 1.0
100.084343 0.06515222946652471
410.10516 0.016794878276644835

INCHIKEY: DWFZBUWUXWZWKD-UHFFFAOYSA-N
NAME: Pyridaben
RETENTION_INDEX: None
RETENTION_TIME: None
NUM PEAKS: 3
132.0939 0.5017094646768725
147.117375 0.32303100049391253
364.13761 0.29817538329655385

INCHIKEY: FIAXCDIQXHJNIX-UHFFFAOYSA-N
NAME: 2,3,4,5,6-Pentabromoethylbenzene
RETENTION_INDEX: None
RETENTION_TIME: None
NUM PEAKS: 3
420.708365 0.7745341558478668
499.626695 1.0
501.624655 0.9670975761532499

INCHIKEY: FQKUGOMFVDPBIZ-UHFFFAOYSA-N
NAME: Flusilazole
RETENTION_INDEX: None
RETENTION_TIME: None
NUM PEAKS: 3
95.029703 0.8048361280526519
220.070626 0.5927874804402603
315.100329 1.0

INCHIKEY: GYSSRZJIHXQEHQ-UHFFFAOYSA-N
NAME: Carboxin
RETENTION_INDEX: None
RETENTION_TIME: None
NUM PEAKS: 3
92.050024 0.7892722422695997
143.016674 1.0
235.066698 0.9088430588921251

INCHIKEY: HAZQOLYHFUUJJN-UHFFFAOYSA-N
NAME: 2,3,3',4',5',6-Hexachlorobiphenyl
RETENTION_INDEX: None
RETENTION_TIME: None
NUM PEAKS: 3
357.844412 0.5134915543177115
359.841462 1.0
361.838512 0.8024360094708469

INCHIKEY: HCWZEPKLWVAEOV-UHFFFAOYSA-N
NAME: 2,2',5,5'-Tetrachlorobiphenyl
RETENTION_INDEX: None
RETENTION_TIME: None
NUM PEAKS: 3
289.922358 0.7724611730376778
291.919408 1.0
293.916458 0.4739272500704606

INCHIKEY: HDULUCZRGGWTMZ-UHFFFAOYSA-N
NAME: 2,3',5',6-Tetrachlorobiphenyl
RETENTION_INDEX: None
RETENTION_TIME: None
NUM PEAKS: 3
289.922358 0.7724611730376778
291.919408 1.0
293.916458 0.4739272500704606

INCHIKEY: HEZNVIYQEUHLNI-UHFFFAOYSA-N
NAME: Ethiofencarb
RETENTION_INDEX: None
RETENTION_TIME: None
NUM PEAKS: 3
164.071152 0.38942670935510454
167.05306 0.31567975338655196
225.082348 0.5607338917405601

INCHIKEY: HHXNVASVVVNNDG-UHFFFAOYSA-N
NAME: 2,2',3,3',4,5',6,6'-Octachlorobiphenyl
RETENTION_INDEX: None
RETENTION_TIME: None
NUM PEAKS: 3
427.763516 0.8805095038712605
429.760566 1.0
431.757616 0.6231453625111514

INCHIKEY: HJJVPARKXDDIQD-UHFFFAOYSA-N
NAME: Bromuconazole
RETENTION_INDEX: None
RETENTION_TIME: None
NUM PEAKS: 3
296.03574 0.9158635645691169
374.95407 0.8837755514417966
376.95203 0.8593195693682486

INCHIKEY: HJUFTIJOISQSKQ-UHFFFAOYSA-N
NAME: Fenoxycarb
RETENTION_INDEX: None
RETENTION_TIME: None
NUM PEAKS: 3
77.039125 1.0
169.065339 0.247062548908672
301.131405 0.9395030150168339

INCHIKEY: HSMVPDGQOIQYSR-UHFFFAOYSA-N
NAME: Triflumizole
RETENTION_INDEX: None
RETENTION_TIME: None
NUM PEAKS: 3
178.987536 0.24203524357394118
278.055949 0.3240546851746769
345.085572 0.7480166664149022

INCHIKEY: HVDXCGSGEQKWGB-UHFFFAOYSA-N
NAME: 2-Ethylhexyl 2,3,4,5-Tetrabromobenzoate
RETENTION_INDEX: None
RETENTION_TIME: None
NUM PEAKS: 3
547.801958 0.24422340103635315
549.799918 0.3575450637817482
551.797878 0.23308331365182763

INCHIKEY: HZJKXKUJVSEEFU-UHFFFAOYSA-N
NAME: Myclobutanil
RETENTION_INDEX: None
RETENTION_TIME: None
NUM PEAKS: 3
82.040522 0.8798673870774658
206.073651 0.368165804049411
288.114173 0.8895576734381047

INCHIKEY: IAKOZHOLGAGEJT-UHFFFAOYSA-N
NAME: Methoxychlor
RETENTION_INDEX: None
RETENTION_TIME: None
NUM PEAKS: 3
92.026214 0.34680045045066377
107.049689 0.37668166581788426
227.107203 1.0

INCHIKEY: IANUJLZYFUDJIH-UHFFFAOYSA-N
NAME: Flufenacet
RETENTION_INDEX: None
RETENTION_TIME: None
NUM PEAKS: 3
95.029703 0.24327055637874617
152.087552 0.16888324013505174
363.066458 0.23826920952257374

INCHIKEY: IBSNKSODLGJUMQ-SDNWHVSQSA-N
NAME: Picoxystrobin
RETENTION_INDEX: None
RETENTION_TIME: None
NUM PEAKS: 3
131.049689 0.5437467975259952
205.086467 0.43882729823454286
367.103139 1.0

INCHIKEY: IHIDFKLAWYPTKB-UHFFFAOYSA-N
NAME: 2,4,6-Trichlorobiphenyl
RETENTION_INDEX: None
RETENTION_TIME: None
NUM PEAKS: 3
220.992479 0.33751184654933214
255.961331 1.0
257.958381 0.9717051124840215

INCHIKEY: IISBACLAFKSPIT-UHFFFAOYSA-N
NAME: Bisphenol A
RETENTION_INDEX: None
RETENTION_TIME: None
NUM PEAKS: 3
135.080989 1.0
213.091553 0.4892506854185859
228.115028 0.9112834813060304

INCHIKEY: ILPSCQCLBHQUEM-UHFFFAOYSA-N
NAME: 2,2',3,4,4',5',6-Heptabromodiphenyl ether
RETENTION_INDEX: None
RETENTION_TIME: None
NUM PEAKS: 3
640.524289 0.7566506094875703
642.522249 1.0
644.520209 0.7166012227226343

INCHIKEY: IMIDOCRTMDIQIJ-UHFFFAOYSA-N
NAME: Aminocarb
RETENTION_INDEX: None
RETENTION_TIME: None
NUM PEAKS: 3
150.091888 0.7581550515840282
207.113351 0.23564270125582065
208.121176 0.6093897374179841

INCHIKEY: ISAVYTVYFVQUDY-UHFFFAOYSA-N
NAME: 4-tert-Octylphenol
RETENTION_INDEX: None
RETENTION_TIME: None
NUM PEAKS: 3
93.034039 0.29363768185949096
135.080989 1.0
206.167064 0.49446280954394356

INCHIKEY: IXSZQYVWNJNRAL-UHFFFAOYSA-N
NAME: Etoxazole
RETENTION_INDEX: None
RETENTION_TIME: None
NUM PEAKS: 3
141.015195 0.328160425024415
182.041744 0.24597363522057292
359.169683 1.0

INCHIKEY: JEDYYFXHPAIBGR-UHFFFAOYSA-N
NAME: Butafenacil
RETENTION_INDEX: None
RETENTION_TIME: None
NUM PEAKS: 3
151.990315 0.22615002221812108
179.985229 1.0
181.982279 0.3190965792870791

INCHIKEY: JFIMDKGRGPNPRQ-UHFFFAOYSA-N
NAME: 2,2',3,3',4,4',5,5',6-Nonachlorobiphenyl
RETENTION_INDEX: None
RETENTION_TIME: None
NUM PEAKS: 3
461.724543 0.7778692823334391
463.721593 1.0
465.718643 0.742606845296897

INCHIKEY: JHJMZCXLJXRCHK-UHFFFAOYSA-N
NAME: 2,3,3',4,5,6-Hexachlorobiphenyl
RETENTION_INDEX: None
RETENTION_TIME: None
NUM PEAKS: 3
357.844412 0.5134915543177115
359.841462 1.0
361.838512 0.8024360094708469

INCHIKEY: JWBOIMRXGHLCPP-UHFFFAOYSA-N
NAME: 2,4'-Dichlorodiphenyldichloroethane
RETENTION_INDEX: None
RETENTION_TIME: None
NUM PEAKS: 3
111.000152 0.804290566730391
235.008129 0.8958425093839688
319.950708 1.0

INCHIKEY: JWUCHKBSVLQQCO-UHFFFAOYSA-N
NAME: Flutriafol
RETENTION_INDEX: None
RETENTION_TIME: None
NUM PEAKS: 3
206.072964 0.33060189531954676
219.062145 1.0
301.102667 0.4592106093690742

INCHIKEY: JXVIIQLNUPXOII-UHFFFAOYSA-N
NAME: Siduron
RETENTION_INDEX: None
RETENTION_TIME: None
NUM PEAKS: 3
77.039125 0.4850780282141935
92.050024 0.48916968843933945
232.157562 1.0

INCHIKEY: KKWHDMUCBWSKGL-UHFFFAOYSA-N
NAME: 2,3,4,5,6-Pentabromobenzyl alcohol
RETENTION_INDEX: None
RETENTION_TIME: None
NUM PEAKS: 3
422.687629 0.45444646116907284
501.605959 0.5957958885134103
503.603919 0.5790550328443579

INCHIKEY: KMYYWRRSXKVAQO-UHFFFAOYSA-N
NAME: 2,2',3,4',5,5',6-Heptachloro-4-methoxybiphenyl
RETENTION_INDEX: None
RETENTION_TIME: None
NUM PEAKS: 3
423.813053 1.0
425.810103 0.9759579554079022
427.807153 0.5161008202586306

INCHIKEY: KQBFUDNJKCZEDQ-UHFFFAOYSA-N
NAME: 2,2',3,4,4',5',6-Heptachlorobiphenyl
RETENTION_INDEX: None
RETENTION_TIME: None
NUM PEAKS: 3
393.802489 1.0
395.799539 0.9654070362524352
397.796589 0.5122176183418706

INCHIKEY: LAHWLEDBADHJGA-UHFFFAOYSA-N
NAME: 2,2',4,5,5'-Pentachlorobiphenyl
RETENTION_INDEX: None
RETENTION_TIME: None
NUM PEAKS: 3
323.883385 0.6163536503955703
325.880435 1.0
327.877485 0.635306146866448

INCHIKEY: LAXBNTIAOJWAOP-UHFFFAOYSA-N
NAME: 2-Chlorobiphenyl
RETENTION_INDEX: None
RETENTION_TIME: None
NUM PEAKS: 3
153.070425 0.34276200265874546
188.039277 1.0
190.036327 0.32400241950174624

INCHIKEY: LKJPSUCKSLORMF-UHFFFAOYSA-N
NAME: Monolinuron
RETENTION_INDEX: None
RETENTION_TIME: None
NUM PEAKS: 3
111.000152 0.6131443609334437
126.011051 1.0
214.050903 0.763402994883061

INCHIKEY: LNJNFVJKDJYTEU-UHFFFAOYSA-N
NAME: Diethofencarb
RETENTION_INDEX: None
RETENTION_TIME: None
NUM PEAKS: 3
151.063327 0.04480936817322647
180.102452 0.0898525044081398
267.147055 0.23052346516417163

INCHIKEY: LQDARGUHUSPFNL-UHFFFAOYSA-N
NAME: Tetraconazole
RETENTION_INDEX: None
RETENTION_TIME: None
NUM PEAKS: 3
82.040522 0.6556239216293025
254.025176 0.6584447174162694
371.021527 1.0

INCHIKEY: MSHFRERJPWKJFX-UHFFFAOYSA-N
NAME: 4-Methoxybenzyl alcohol
RETENTION_INDEX: None
RETENTION_TIME: None
NUM PEAKS: 3
107.049689 0.2312728105680158
137.060253 0.2011746168225434
138.068078 1.0

INCHIKEY: MVWHGTYKUMDIHL-UHFFFAOYSA-N
NAME: 2,2',4,4',5,5'-Hexachlorobiphenyl
RETENTION_INDEX: None
RETENTION_TIME: None
NUM PEAKS: 3
357.844412 0.5134915543177115
359.841462 1.0
361.838512 0.8024360094708469

INCHIKEY: MXVAYAXIPRGORY-UHFFFAOYSA-N
NAME: 3,3',4,5,5'-Pentachlorobiphenyl
RETENTION_INDEX: None
RETENTION_TIME: None
NUM PEAKS: 3
323.883385 0.6163536503955703
325.880435 1.0
327.877485 0.635306146866448

INCHIKEY: NHDHVHZZCFYRSB-UHFFFAOYSA-N
NAME: Pyriproxyfen
RETENTION_INDEX: None
RETENTION_TIME: None
NUM PEAKS: 3
77.039125 1.0
78.034374 0.40982700539405714
321.136491 0.7003098618419815

INCHIKEY: NHOWDZOIZKMVAI-UHFFFAOYSA-N
NAME: Fenarimol
RETENTION_INDEX: None
RETENTION_TIME: None
NUM PEAKS: 3
219.032514 1.0
251.003043 0.43679147850124667
330.032666 0.5131382601328156

INCHIKEY: NLZUEZXRPGMBCV-UHFFFAOYSA-N
NAME: Butylated hydroxytoluene
RETENTION_INDEX: None
RETENTION_TIME: None
NUM PEAKS: 3
190.135764 0.1834585196334428
205.159239 0.4970696104070776
220.182714 1.0

INCHIKEY: NWUWYYSKZYIQAE-WMCAAGNKSA-N
NAME: Iprovalicarb
RETENTION_INDEX: None
RETENTION_TIME: None
NUM PEAKS: 3
91.054775 0.10176272713411941
119.086075 0.5203788598172834
320.20999 0.27849473073339875

INCHIKEY: OMFRMAHOUUJSGP-IRHGGOMRSA-N
NAME: Bifenthrin
RETENTION_INDEX: None
RETENTION_TIME: None
NUM PEAKS: 3
180.0939 0.1943457962206888
181.101725 1.0
422.126039 0.2920720656867626

INCHIKEY: ONCZDRURRATYFI-UHFFFAOYSA-N
NAME: Trifloxystrobin
RETENTION_INDEX: None
RETENTION_TIME: None
NUM PEAKS: 3
116.050024 0.9140493181702207
145.026509 0.5193712659219591
408.129688 1.0

INCHIKEY: OPKYDBFRKPQCBS-UHFFFAOYSA-N
NAME: 2,2',3,4,5'-Pentachlorobiphenyl
RETENTION_INDEX: None
RETENTION_TIME: None
NUM PEAKS: 3
323.883385 0.6163536503955703
325.880435 1.0
327.877485 0.635306146866448

INCHIKEY: OZHJEQVYCBTHJT-UHFFFAOYSA-N
NAME: 2,3,4,5,6-Pentabromotoluene
RETENTION_INDEX: None
RETENTION_TIME: None
NUM PEAKS: 3
406.692715 0.5643489278800794
485.611045 1.0
487.609005 0.9658323080295438

INCHIKEY: PITHIPNORFGJPI-UHFFFAOYSA-N
NAME: 2,3',4,4',5',6-Hexachlorobiphenyl
RETENTION_INDEX: None
RETENTION_TIME: None
NUM PEAKS: 3
357.844412 0.5134915543177115
359.841462 1.0
361.838512 0.8024360094708469

INCHIKEY: PPDBOQMNKNNODG-NTEUORMPSA-N
NAME: Triticonazole
RETENTION_INDEX: None
RETENTION_TIME: None
NUM PEAKS: 3
82.040522 0.3339994048429301
235.088966 0.9074530557809788
317.129488 1.0

INCHIKEY: PQKBPHSEKWERTG-UHFFFAOYSA-N
NAME: Fenoxaprop-ethyl
RETENTION_INDEX: None
RETENTION_TIME: None
NUM PEAKS: 3
76.0313 1.0
92.026214 0.3160097823976938
361.071696 0.5860394789547534

INCHIKEY: PTCGDEVVHUXTMP-UHFFFAOYSA-N
NAME: Flutolanil
RETENTION_INDEX: None
RETENTION_TIME: None
NUM PEAKS: 3
154.02302 0.12930145764224094
173.021423 0.6049526465676771
323.113311 0.5232712137211555

INCHIKEY: PXMNMQRDXWABCY-UHFFFAOYSA-N
NAME: Tebuconazole
RETENTION_INDEX: None
RETENTION_TIME: None
NUM PEAKS: 3
125.015802 0.6304151760331639
139.031452 0.20027787965201369
307.145138 0.6149304264822192

INCHIKEY: PYZHTHZEHQHHEN-UHFFFAOYSA-N
NAME: 2,2',3,4,5,5',6-Heptachlorobiphenyl
RETENTION_INDEX: None
RETENTION_TIME: None
NUM PEAKS: 3
393.802489 1.0
395.799539 0.9654070362524352
397.796589 0.5122176183418706

INCHIKEY: PZBPKYOVPCNPJY-UHFFFAOYSA-N
NAME: Enilconazole
RETENTION_INDEX: None
RETENTION_TIME: None
NUM PEAKS: 3
81.045273 0.422155796569825
296.048316 0.31818408576152035
298.045366 0.2036096507840332

INCHIKEY: QBSJMKIUCUGGNG-UHFFFAOYSA-N
NAME: Isoprocarb
RETENTION_INDEX: None
RETENTION_TIME: None
NUM PEAKS: 3
119.086075 0.23123594772822018
135.080989 0.719330208544276
193.110277 0.5500916372552124

INCHIKEY: QHTQREMOGMZHJV-UHFFFAOYSA-N
NAME: Thiobencarb
RETENTION_INDEX: None
RETENTION_TIME: None
NUM PEAKS: 3
100.076238 0.4553196230512604
125.015802 0.5424547823104587
257.064111 0.40008768751483426

INCHIKEY: QNBTYORWCCMPQP-UHFFFAOYSA-N
NAME: Dimethomorph
RETENTION_INDEX: None
RETENTION_TIME: None
NUM PEAKS: 3
86.060588 0.6684825197656932
301.063144 0.713057026905483
387.123732 1.0

INCHIKEY: QQQYTWIFVNKMRW-UHFFFAOYSA-N
NAME: Diflubenzuron
RETENTION_INDEX: None
RETENTION_TIME: None
NUM PEAKS: 3
141.015195 1.0
154.005965 0.2911654275838072
310.032059 0.5031814896497185

INCHIKEY: QXAITBQSYVNQDR-UHFFFAOYSA-N
NAME: Amitraz
RETENTION_INDEX: None
RETENTION_TIME: None
NUM PEAKS: 3
105.070425 0.9195310509707595
132.081324 0.9838936757221453
293.189197 1.0

INCHIKEY: RKLLTEAEZIJBAU-UHFFFAOYSA-N
NAME: 2,3',4,4'-Tetrachlorobiphenyl
RETENTION_INDEX: None
RETENTION_TIME: None
NUM PEAKS: 3
289.922358 0.7724611730376778
291.919408 1.0
293.916458 0.4739272500704606

INCHIKEY: RMOGWMIKYWRTKW-LSLKUGRBSA-N
NAME: Paclobutrazol
RETENTION_INDEX: None
RETENTION_TIME: None
NUM PEAKS: 3
87.080989 0.3211793197390744
125.015802 0.8214848032090452
293.129488 0.6018294376696603

INCHIKEY: RMPWIIKNWPVWNG-UHFFFAOYSA-N
NAME: 2,2',3,3',4,4',5-Heptachlorobiphenyl
RETENTION_INDEX: None
RETENTION_TIME: None
NUM PEAKS: 3
393.802489 1.0
395.799539 0.9654070362524352
397.796589 0.5122176183418706

INCHIKEY: RPUMZMSNLZHIGZ-UHFFFAOYSA-N
NAME: 2,2',3,4,4',5'-Hexachlorobiphenyl
RETENTION_INDEX: None
RETENTION_TIME: None
NUM PEAKS: 3
357.844412 0.5134915543177115
359.841462 1.0
361.838512 0.8024360094708469

INCHIKEY: RWCCWEUUXYIKHB-UHFFFAOYSA-N
NAME: Benzophenone
RETENTION_INDEX: None
RETENTION_TIME: None
NUM PEAKS: 3
77.039125 0.6615269156599666
105.034039 1.0
182.073164 0.688566286205843

INCHIKEY: RXKOKVQKECXYOT-UHFFFAOYSA-N
NAME: 2,3,5,6-Tetrabromo-p-xylene
RETENTION_INDEX: None
RETENTION_TIME: None
NUM PEAKS: 3
180.96528 0.7972642158353775
261.88157 0.9987808009937666
421.71619 1.0

INCHIKEY: RYAUSSKQMZRMAI-ALOPSCKCSA-N
NAME: Fenpropimorph
RETENTION_INDEX: None
RETENTION_TIME: None
NUM PEAKS: 3
70.065674 0.4188090592274406
132.0939 0.4828826856294317
303.256213 1.0

INCHIKEY: SAPGTCDSBGMXCD-UHFFFAOYSA-N
NAME: Nuarimol
RETENTION_INDEX: None
RETENTION_TIME: None
NUM PEAKS: 3
203.062065 0.9302505661393786
219.032514 0.707379400144038
314.062217 1.0

INCHIKEY: SCCDDNKJYDZXMM-UHFFFAOYSA-N
NAME: Dimethachlor
RETENTION_INDEX: None
RETENTION_TIME: None
NUM PEAKS: 3
105.070425 0.4288960194036385
178.123188 0.5271123762169138
255.102604 0.6893168727950809

INCHIKEY: SDKQRNRRDYRQKY-UHFFFAOYSA-N
NAME: Dioxacarb
RETENTION_INDEX: None
RETENTION_TIME: None
NUM PEAKS: 3
73.028953 0.576046281798382
165.055167 0.4355165557169611
223.084455 0.4743614918141045

INCHIKEY: SDQFDHOLCGWZPU-UHFFFAOYSA-N
NAME: Lilial
RETENTION_INDEX: None
RETENTION_TIME: None
NUM PEAKS: 3
147.117375 0.9845464444477008
175.148675 0.8103185153836401
204.151414 1.0

INCHIKEY: SESFRYSPDFLNCH-UHFFFAOYSA-N
NAME: Benzyl benzoate
RETENTION_INDEX: None
RETENTION_TIME: None
NUM PEAKS: 3
77.039125 0.5672810909485997
91.054775 1.0
105.034039 0.5159951217832736

INCHIKEY: SOUGWDPPRBKJEX-UHFFFAOYSA-N
NAME: Zoxamide
RETENTION_INDEX: None
RETENTION_TIME: None
NUM PEAKS: 3
186.971743 1.0
188.968793 0.6429034579018752
335.024658 0.4067953535478102

INCHIKEY: SSTJUBQGYXNFFP-UHFFFAOYSA-N
NAME: 2,3,3',4',5,5',6-Heptachlorobiphenyl
RETENTION_INDEX: None
RETENTION_TIME: None
NUM PEAKS: 3
393.802489 1.0
395.799539 0.9654070362524352
397.796589 0.5122176183418706

INCHIKEY: STEPQTYSZVCJPV-UHFFFAOYSA-N
NAME: Metazachlor
RETENTION_INDEX: None
RETENTION_TIME: None
NUM PEAKS: 3
81.045273 1.0
133.089149 0.43302003918036613
277.098188 0.3504681126289272

INCHIKEY: STJLVHWMYQXCPB-UHFFFAOYSA-N
NAME: Propiconazole
RETENTION_INDEX: None
RETENTION_TIME: None
NUM PEAKS: 3
82.040522 1.0
144.961179 0.6027555170096481
341.069779 0.6720161758753753

INCHIKEY: STMIIPIFODONDC-UHFFFAOYSA-N
NAME: Hexaconazole
RETENTION_INDEX: None
RETENTION_TIME: None
NUM PEAKS: 3
82.040522 0.5209113617147384
231.034343 0.4962177101141795
313.074865 0.5287001586927117

INCHIKEY: SUOAMBOBSWRMNQ-UHFFFAOYSA-N
NAME: 2,2',3,4',5-Pentachlorobiphenyl
RETENTION_INDEX: None
RETENTION_TIME: None
NUM PEAKS: 3
323.883385 0.6163536503955703
325.880435 1.0
327.877485 0.635306146866448

INCHIKEY: SXZSFWHOSHAKMN-UHFFFAOYSA-N
NAME: 2,3',4,4',5-Pentachlorobiphenyl
RETENTION_INDEX: None
RETENTION_TIME: None
NUM PEAKS: 3
323.883385 0.6163536503955703
325.880435 1.0
327.877485 0.635306146866448

INCHIKEY: TXGGVMUGQFGMGI-UHFFFAOYSA-N
NAME: 2,2',3',4,4',5-Hexachloro-3-methoxybiphenyl
RETENTION_INDEX: None
RETENTION_TIME: None
NUM PEAKS: 3
387.854976 0.5208226743594901
389.852026 1.0
391.849076 0.8046514767358857

INCHIKEY: UCLKLGIYGBLTSM-UHFFFAOYSA-N
NAME: 2,2',3,4,5,5'-Hexachlorobiphenyl
RETENTION_INDEX: None
RETENTION_TIME: None
NUM PEAKS: 3
357.844412 0.5134915543177115
359.841462 1.0
361.838512 0.8024360094708469

INCHIKEY: UCNVFOCBFJOQAL-UHFFFAOYSA-N
NAME: 4,4'-Dichlorodiphenyldichloroethylene
RETENTION_INDEX: None
RETENTION_TIME: None
NUM PEAKS: 3
111.000152 0.7883393097147591
315.938008 0.7681150854543045
317.935058 1.0

INCHIKEY: UDMZPLROONOSEF-UHFFFAOYSA-N
NAME: 2,2',3,4',5,5',6-Heptachlorobiphenyl
RETENTION_INDEX: None
RETENTION_TIME: None
NUM PEAKS: 3
393.802489 1.0
395.799539 0.9654070362524352
397.796589 0.5122176183418706

INCHIKEY: UFNOUKDBUJZYDE-UHFFFAOYSA-N
NAME: Cyproconazole
RETENTION_INDEX: None
RETENTION_TIME: None
NUM PEAKS: 3
111.000152 0.3236579031575185
222.043413 0.3694004163325763
291.113838 0.7079365993807964

INCHIKEY: UHCLFIWDCYOTOL-UHFFFAOYSA-N
NAME: 2,2',3,5,5',6-Hexachlorobiphenyl
RETENTION_INDEX: None
RETENTION_TIME: None
NUM PEAKS: 3
357.844412 0.5134915543177115
359.841462 1.0
361.838512 0.8024360094708469

INCHIKEY: UOAMTSKGCBMZTC-UHFFFAOYSA-N
NAME: Dicofol
RETENTION_INDEX: None
RETENTION_TIME: None
NUM PEAKS: 3
111.000152 0.2339948943853775
251.003043 1.0
253.000093 0.6456320569228323

INCHIKEY: UQMRAFJOBWOFNS-UHFFFAOYSA-N
NAME: 2,4-D butyl ester
RETENTION_INDEX: None
RETENTION_TIME: None
NUM PEAKS: 3
174.971743 1.0
176.968793 0.6392712487805308
276.031996 0.9116365418317711

INCHIKEY: URDNHJIVMYZFRT-UHFFFAOYSA-N
NAME: Diclobutrazol
RETENTION_INDEX: None
RETENTION_TIME: None
NUM PEAKS: 3
87.080989 0.4211314361307222
158.976829 0.47663869196972203
327.090515 0.5027306576178978

INCHIKEY: UWVQIROCRJWDKL-UHFFFAOYSA-N
NAME: Oxadixyl
RETENTION_INDEX: None
RETENTION_TIME: None
NUM PEAKS: 3
73.028953 0.13328136406301325
105.070425 0.14253821908127773
278.126654 0.23405555161391242

INCHIKEY: VAHKBZSAUKPEOV-UHFFFAOYSA-N
NAME: 2,4',5-Trichlorobiphenyl
RETENTION_INDEX: None
RETENTION_TIME: None
NUM PEAKS: 3
220.992479 0.42800679488009336
255.961331 1.0
257.958381 0.9717051124840215

INCHIKEY: VBCVPMMZEGZULK-NRFANRHFSA-N
NAME: Indoxacarb
RETENTION_INDEX: None
RETENTION_TIME: None
NUM PEAKS: 3
178.005965 0.4691388201858271
206.024689 1.0
527.070706 0.4835925663049514

INCHIKEY: VDLGAVXLJYLFDH-UHFFFAOYSA-N
NAME: Fenhexamid
RETENTION_INDEX: None
RETENTION_TIME: None
NUM PEAKS: 3
97.101725 0.46435256401416175
301.063631 1.0
303.060681 0.6344346166842241

INCHIKEY: VGPIBGGRCVEHQZ-UHFFFAOYSA-N
NAME: Bitertanol
RETENTION_INDEX: None
RETENTION_TIME: None
NUM PEAKS: 3
153.070425 0.3361652166396365
169.065339 0.29457584388101654
337.179025 0.47417204839278765

INCHIKEY: VHLKTXFWDRXILV-UHFFFAOYSA-N
NAME: Bifenazate
RETENTION_INDEX: None
RETENTION_TIME: None
NUM PEAKS: 3
198.091888 0.14565901241031357
213.102787 0.4013155613591707
300.14739 0.5034613804357114

INCHIKEY: VXPLXMJHHKHSOA-UHFFFAOYSA-N
NAME: Propham
RETENTION_INDEX: None
RETENTION_TIME: None
NUM PEAKS: 3
92.050024 0.16447363375788215
120.044938 0.0733078462754063
179.094627 0.17104739567325777

INCHIKEY: WBHQEUPUMONIKF-UHFFFAOYSA-N
NAME: 2,2',3,4,4',5,5'-Heptachlorobiphenyl
RETENTION_INDEX: None
RETENTION_TIME: None
NUM PEAKS: 3
393.802489 1.0
395.799539 0.9654070362524352
397.796589 0.5122176183418706

INCHIKEY: WFDXOXNFNRHQEC-GHRIWEEISA-N
NAME: Azoxystrobin
RETENTION_INDEX: None
RETENTION_TIME: None
NUM PEAKS: 3
102.034374 0.5360775650597227
117.034039 0.2584296811869776
403.116817 1.0

INCHIKEY: WKBPZYKAUNRMKP-UHFFFAOYSA-N
NAME: Penconazole
RETENTION_INDEX: None
RETENTION_TIME: None
NUM PEAKS: 3
201.023779 0.5152411977135497
283.064301 1.0
285.061351 0.6399091211181223

INCHIKEY: WLFDQEVORAMCIM-UHFFFAOYSA-N
NAME: Metobromuron
RETENTION_INDEX: None
RETENTION_TIME: None
NUM PEAKS: 3
169.960529 0.9574157251844819
258.000381 1.0
259.998341 0.9646919491911682

INCHIKEY: WMXWTOJJASZOCL-UHFFFAOYSA-N
NAME: 2,3,4,5-Tetrabromo-6-chlorotoluene
RETENTION_INDEX: None
RETENTION_TIME: None
NUM PEAKS: 3
360.745277 0.6396784024890203
439.663607 0.6776978522804533
441.661567 1.0

INCHIKEY: WVDDGKGOMKODPV-UHFFFAOYSA-N
NAME: Benzyl alcohol
RETENTION_INDEX: None
RETENTION_TIME: None
NUM PEAKS: 3
77.039125 0.5973109604369419
107.049689 0.24258166313440302
108.057514 1.0

INCHIKEY: WVQBLGZPHOPPFO-UHFFFAOYSA-N
NAME: Metolachlor
RETENTION_INDEX: None
RETENTION_TIME: None
NUM PEAKS: 3
73.065339 0.8413774968616806
119.086075 0.3250023863777271
283.133904 0.5773829732072132

INCHIKEY: WXPWZZHELZEVPO-UHFFFAOYSA-N
NAME: 4-Methylbenzophenone
RETENTION_INDEX: None
RETENTION_TIME: None
NUM PEAKS: 3
105.034039 0.7994239808241481
119.049689 0.8925801677674811
196.088814 1.0

INCHIKEY: WYEMLYFITZORAB-UHFFFAOYSA-N
NAME: Boscalid
RETENTION_INDEX: None
RETENTION_TIME: None
NUM PEAKS: 3
139.990315 1.0
202.042351 0.8205531700597202
342.032666 0.5943619185143513

INCHIKEY: XCSGPAVHZFQHGE-UHFFFAOYSA-N
NAME: Alachlor
RETENTION_INDEX: None
RETENTION_TIME: None
NUM PEAKS: 3
147.104799 0.04698109113142861
269.118254 0.1809248049061185
271.115304 0.058288990321461266

INCHIKEY: XEFQLINVKFYRCS-UHFFFAOYSA-N
NAME: Triclosan
RETENTION_INDEX: None
RETENTION_TIME: None
NUM PEAKS: 3
286.943334 1.0
287.951159 0.32958034187071156
288.940384 0.9600907993057519

INCHIKEY: XJKSTNDFUHDPQJ-UHFFFAOYSA-N
NAME: para-Terphenyl
RETENTION_INDEX: None
RETENTION_TIME: None
NUM PEAKS: 3
75.023475 0.23190492417818007
77.039125 0.24396152468779164
230.10955 1.0

INCHIKEY: XKJMBINCVNINCA-UHFFFAOYSA-N
NAME: Linuron
RETENTION_INDEX: None
RETENTION_TIME: None
NUM PEAKS: 3
159.972078 0.975502002435985
248.01193 1.0
250.00898 0.6515744851419112

INCHIKEY: XOMKZKJEJBZBJJ-UHFFFAOYSA-N
NAME: 2,3-Dichlorobiphenyl
RETENTION_INDEX: None
RETENTION_TIME: None
NUM PEAKS: 3
187.031452 0.7015151040629785
222.000304 1.0
223.997354 0.6379358342806022

INCHIKEY: XQUXKZZNEFRCAW-UHFFFAOYSA-N
NAME: Fenpropathrin
RETENTION_INDEX: None
RETENTION_TIME: None
NUM PEAKS: 3
77.039125 0.675215432806299
97.101725 1.0
208.076238 0.5807433861511451

INCHIKEY: YFBPRJGDJKVWAH-UHFFFAOYSA-N
NAME: Methiocarb
RETENTION_INDEX: None
RETENTION_TIME: None
NUM PEAKS: 3
167.05306 0.4563169361595645
224.074523 0.25562810045611134
225.082348 0.4896949693328039

INCHIKEY: YFVOXLJXJBQDEF-UHFFFAOYSA-N
NAME: Isocarbophos
RETENTION_INDEX: None
RETENTION_TIME: None
NUM PEAKS: 3
109.982945 0.2694203271110288
230.004073 0.1383350448010652
289.053762 0.3934474151358787

INCHIKEY: YNEVBPNZHBAYOA-UHFFFAOYSA-N
NAME: Mexacarbate
RETENTION_INDEX: None
RETENTION_TIME: None
NUM PEAKS: 3
164.107538 0.8727654872449877
221.129001 0.3276501033350675
222.136826 0.706445989113288

INCHIKEY: YPCALTGLHFLNGA-UHFFFAOYSA-N
NAME: Pyracarbolid
RETENTION_INDEX: None
RETENTION_TIME: None
NUM PEAKS: 3
92.050024 0.20694163582932681
125.060253 1.0
217.110277 0.3808436922855563

INCHIKEY: YVGGHNCTFXOJCH-UHFFFAOYSA-N
NAME: 4,4'-Dichlorodiphenyltrichloroethane
RETENTION_INDEX: None
RETENTION_TIME: None
NUM PEAKS: 3
111.000152 0.6821438796750126
235.008129 1.0
318.942883 0.741825830766208

INCHIKEY: ZAGRQXMWMRUYRB-UHFFFAOYSA-N
NAME: 2,3,3',4',5,6-Hexachlorobiphenyl
RETENTION_INDEX: None
RETENTION_TIME: None
NUM PEAKS: 3
357.844412 0.5134915543177115
359.841462 1.0
361.838512 0.8024360094708469

INCHIKEY: ZCTQGTTXIYCGGC-UHFFFAOYSA-N
NAME: Benzyl salicylate
RETENTION_INDEX: None
RETENTION_TIME: None
NUM PEAKS: 3
91.054775 1.0
121.028953 0.4061263784130608
228.078642 0.4665826388376053

INCHIKEY: ZDYJWDIWLRZXDB-UHFFFAOYSA-N
NAME: 2,4'-Dichlorodiphenyldichloroethylene
RETENTION_INDEX: None
RETENTION_TIME: None
NUM PEAKS: 3
111.000152 0.7132441878450447
315.938008 0.7681150854543045
317.935058 1.0

INCHIKEY: ZFHGXWPMULPQSE-WTKPLQERSA-N
NAME: Tefluthrin
RETENTION_INDEX: None
RETENTION_TIME: None
NUM PEAKS: 3
177.032737 1.0
197.034486 0.6809522582110471
418.057051 0.5707516584172118

INCHIKEY: ZLIBICFPKPWGIZ-UHFFFAOYSA-N
NAME: Pyrimethanil
RETENTION_INDEX: None
RETENTION_TIME: None
NUM PEAKS: 3
77.039125 0.3421980871949277
198.103122 0.2044982751270875
199.110947 1.0

INCHIKEY: ZSDSQXJSNMTJDA-UHFFFAOYSA-N
NAME: Trifluralin
RETENTION_INDEX: None
RETENTION_TIME: None
NUM PEAKS: 3
277.067423 0.05882970559040702
335.109287 0.3650239451623697
336.112641 0.052980815094656665

INCHIKEY: ZYEMGPIYFIJGTP-UHFFFAOYSA-N
NAME: Methyleugenol
RETENTION_INDEX: None
RETENTION_TIME: None
NUM PEAKS: 3
151.075903 0.25264063010311305
163.075903 0.3651100562431686
178.099378 1.0

INCHIKEY: ZYHMJXZULPZUED-UHFFFAOYSA-N
NAME: Propargite
RETENTION_INDEX: None
RETENTION_TIME: None
NUM PEAKS: 3
149.096639 0.5734448404417569
247.169803 0.7083185459542224
350.155177 1.0

INCHIKEY: ZZYSLNWGKKDOML-UHFFFAOYSA-N
NAME: Tebufenpyrad
RETENTION_INDEX: None
RETENTION_TIME: None
NUM PEAKS: 3
132.0939 0.6774462782481734
333.160788 1.0
335.157838 0.32324324944422694

INCHIKEY: FIPWRIJSWJWJAI-UHFFFAOYSA-N
NAME: Piperonyl butoxide
RETENTION_INDEX: None
RETENTION_TIME: None
NUM PEAKS: 3
87.080989 0.1750048843331444
338.20932 1.0
339.212674 0.2056116555730229

INCHIKEY: MUJOIMFVNIBMKC-UHFFFAOYSA-N
NAME: Fludioxonil
RETENTION_INDEX: None
RETENTION_TIME: None
NUM PEAKS: 3
182.048012 0.8158177062846614
248.039732 1.0
249.043086 0.1314695937264729

INCHIKEY: XEGGRYVFLWGFHI-UHFFFAOYSA-N
NAME: Bendiocarb
RETENTION_INDEX: None
RETENTION_TIME: None
NUM PEAKS: 3
107.013303 0.3512065507529234
165.055167 0.3259168470905574
223.084455 0.5195716933557446

INCHIKEY: ZMQAAUBTXCXRIC-UHFFFAOYSA-N
NAME: Safrole
RETENTION_INDEX: None
RETENTION_TIME: None
NUM PEAKS: 3
135.044603 0.2726779105091945
161.060253 0.15758639779623534
162.068078 1.0

INCHIKEY: PDMFRPIFZAKMLH-UHFFFAOYSA-N
NAME: 1,2,7,9-Tetrachlorodibenzofuran
RETENTION_INDEX: None
RETENTION_TIME: None
NUM PEAKS: 3
303.901622 0.7617073531670582
305.898672 1.0
307.895722 0.48191407489160804

INCHIKEY: RHIROFAGUQOFLU-UHFFFAOYSA-N
NAME: Octachlorodibenzofuran
RETENTION_INDEX: None
RETENTION_TIME: None
NUM PEAKS: 3
441.74278 0.8804379723369177
443.73983 1.0
445.73688 0.6420438020194663

INCHIKEY: ONKNPOPIGWHAQC-UHFFFAOYSA-N
NAME: Galaxolide
RETENTION_INDEX: None
RETENTION_TIME: None
NUM PEAKS: 3
243.174889 0.3628469317576364
258.198364 1.0
259.201718 0.19735909302412863

INCHIKEY: UELITFHSCLAHKR-UHFFFAOYSA-N
NAME: Acibenzolar-S-methyl
RETENTION_INDEX: None
RETENTION_TIME: None
NUM PEAKS: 3
134.99046 0.3985654995348099
162.996608 1.0
209.992154 0.6444015479053651

INCHIKEY: RRVIAQKBTUQODI-UHFFFAOYSA-N
NAME: Methabenzthiazuron
RETENTION_INDEX: None
RETENTION_TIME: None
NUM PEAKS: 3
163.032994 0.7490959983796074
164.040819 0.21297630844076196
221.062282 0.35277493293955187

INCHIKEY: XIGAUIHYSDTJHW-UHFFFAOYSA-N
NAME: Mefenacet
RETENTION_INDEX: None
RETENTION_TIME: None
NUM PEAKS: 3
106.065674 1.0
164.017009 0.3506700857838071
298.077597 0.49892790945572846

INCHIKEY: DQJCHOQLCLEDLL-UHFFFAOYSA-N
NAME: Tricyclazole
RETENTION_INDEX: None
RETENTION_TIME: None
NUM PEAKS: 3
162.025169 0.32764527918747655
188.028243 0.20219368879692967
189.036068 1.0

INCHIKEY: FZSVSABTBYGOQH-UHFFFAOYSA-N
NAME: Thiofanox
RETENTION_INDEX: None
RETENTION_TIME: None
NUM PEAKS: 3
144.084695 0.1085510079052951
171.113351 0.09427011366992007
218.108897 0.23048443776907862

INCHIKEY: CJPQIRJHIZUAQP-UHFFFAOYSA-N
NAME: Benalaxyl
RETENTION_INDEX: None
RETENTION_TIME: None
NUM PEAKS: 3
77.039125 0.28143311685548955
91.054775 1.0
325.167791 0.41931428771327106

INCHIKEY: LESVOLZBIFDZGS-UHFFFAOYSA-N
NAME: Vamidothion
RETENTION_INDEX: None
RETENTION_TIME: None
NUM PEAKS: 3
86.060588 0.6985810905024127
178.03603 0.8149070513387332
287.041483 1.0

INCHIKEY: LMVPQMGRYSRMIW-KRWDZBQOSA-N
NAME: Fenamidone
RETENTION_INDEX: None
RETENTION_TIME: None
NUM PEAKS: 3
92.050024 1.0
219.059208 0.6506374449684508
311.109232 0.5795390507321329

INCHIKEY: ZQEIXNIJLIKNTD-UHFFFAOYSA-N
NAME: Metalaxyl
RETENTION_INDEX: None
RETENTION_TIME: None
NUM PEAKS: 3
73.028953 0.23339336205100683
147.104799 0.17671876893711544
279.147055 0.29749527960582817

INCHIKEY: GUUHFMWKWLOQMM-NTCAYCPXSA-N
NAME: alpha-Hexylcinnamaldehyde
RETENTION_INDEX: None
RETENTION_TIME: None
NUM PEAKS: 3
77.039125 1.0
78.042479 0.0632714397839558
137.096639 0.5537872080016296

INCHIKEY: HMKKIXGYKWDQSV-UHFFFAOYSA-N
NAME: alpha-Amylcinnamaldehyde
RETENTION_INDEX: None
RETENTION_TIME: None
NUM PEAKS: 3
116.0626 0.21767464612366594
145.065339 0.3663529802294923
202.135764 1.0

INCHIKEY: NGHOLYJTSCBCGC-UHFFFAOYSA-N
NAME: Benzyl cinnamate
RETENTION_INDEX: None
RETENTION_TIME: None
NUM PEAKS: 3
91.054775 1.0
131.049689 0.6690904339098916
238.099378 0.7692572856033731

INCHIKEY: FBOUIAKEJMZPQG-MLPAPPSSSA-N
NAME: Diniconazole
RETENTION_INDEX: None
RETENTION_TIME: None
NUM PEAKS: 3
268.00444 0.08205884322452425
325.074865 0.15958899087921102
327.071915 0.10149463052722459

INCHIKEY: LIPHCKNQPJXUQF-KAMYIIQDSA-N
NAME: alpha-Amylcinnamyl alcohol
RETENTION_INDEX: None
RETENTION_TIME: None
NUM PEAKS: 3
147.080989 0.4209599221623956
203.143589 0.4249005473625493
204.151414 1.0

INCHIKEY: OOCCDEMITAIZTP-QPJJXVBHSA-N
NAME: Cinnamyl alcohol
RETENTION_INDEX: None
RETENTION_TIME: None
NUM PEAKS: 3
77.039125 0.3209820601067433
103.054775 0.3786163148131047
134.073164 1.0

INCHIKEY: DUEPRVBVGDRKAG-UHFFFAOYSA-N
NAME: Carbofuran
RETENTION_INDEX: None
RETENTION_TIME: None
NUM PEAKS: 3
147.080989 0.26348967614427554
163.075903 0.6169043400938422
221.105191 0.6256763085309641

INCHIKEY: HAWJXYBZNNRMNO-UHFFFAOYSA-N
NAME: Furathiocarb
RETENTION_INDEX: None
RETENTION_TIME: None
NUM PEAKS: 3
107.013303 1.0
163.075903 0.983432375372077
382.156239 0.5140529769971822

INCHIKEY: IRCMYGHHKLLGHV-UHFFFAOYSA-N
NAME: Ethofumesate
RETENTION_INDEX: None
RETENTION_TIME: None
NUM PEAKS: 3
207.102117 1.0
208.105471 0.1309455459986481
286.087491 0.13180714637786897

INCHIKEY: WJGPNUBJBMCRQH-UHFFFAOYSA-N
NAME: Carbofuran phenol
RETENTION_INDEX: None
RETENTION_TIME: None
NUM PEAKS: 3
149.060253 0.2971891622362683
163.075903 0.27777777380952384
164.083728 1.0

INCHIKEY: ODZHLDRQCZXQFQ-UHFFFAOYSA-N
NAME: Chlorferone
RETENTION_INDEX: None
RETENTION_TIME: None
NUM PEAKS: 3
175.039517 0.35232808327028325
210.008369 1.0
212.005419 0.32586983934947933

INCHIKEY: DMYHGDXADUDKCQ-UHFFFAOYSA-N
NAME: Fenazaquin
RETENTION_INDEX: None
RETENTION_TIME: None
NUM PEAKS: 3
103.054775 0.28709141918760733
160.1252 0.29556705190746874
306.173212 1.0

INCHIKEY: IJJVMEJXYNJXOJ-UHFFFAOYSA-N
NAME: Fluquinconazole
RETENTION_INDEX: None
RETENTION_TIME: None
NUM PEAKS: 3
306.984119 1.0
308.981169 0.6399444899979022
375.008991 0.900158367041773

INCHIKEY: DSKJPMWIHSOYEA-UHFFFAOYSA-N
NAME: Bupirimate
RETENTION_INDEX: None
RETENTION_TIME: None
NUM PEAKS: 3
166.098036 0.0173165630562322
208.144986 1.0
209.14834 0.11931662343044351

INCHIKEY: FJDPATXIBIBRIM-QFMSAKRMSA-N
NAME: trans-Cyphenothrin
RETENTION_INDEX: None
RETENTION_TIME: None
NUM PEAKS: 3
122.10955 0.2315214797967854
208.076238 1.0
375.183441 0.2191902159013606

INCHIKEY: FJDPATXIBIBRIM-UHFFFAOYSA-N
NAME: cis-Cyphenothrin
RETENTION_INDEX: None
RETENTION_TIME: None
NUM PEAKS: 3
77.039125 0.3666773724512382
123.117375 1.0
208.076238 0.3455214987606208

INCHIKEY: GBIHOLCMZGAKNG-UHFFFAOYSA-N
NAME: Flucythrinate
RETENTION_INDEX: None
RETENTION_TIME: None
NUM PEAKS: 3
77.039125 0.5676973369817871
199.093445 1.0
208.076238 0.6934944994851492

INCHIKEY: GEPDYQSQVLXLEU-AATRIKPKSA-N
NAME: Mevinphos
RETENTION_INDEX: None
RETENTION_TIME: None
NUM PEAKS: 3
109.005453 0.939594195219222
193.026581 0.24250464143208017
224.04497 1.0

INCHIKEY: GOLXNESZZPUPJE-UHFFFAOYSA-N
NAME: Spiromesifen
RETENTION_INDEX: None
RETENTION_TIME: None
NUM PEAKS: 3
119.086075 0.10890159470855068
159.080989 0.1167039173830844
370.214406 0.2619171355067588

INCHIKEY: JXSJBGJIGXNWCI-UHFFFAOYSA-N
NAME: Malathion
RETENTION_INDEX: None
RETENTION_TIME: None
NUM PEAKS: 3
93.010539 0.1168021545351755
124.98261 0.07697034559994086
330.036062 0.2164416986765788

INCHIKEY: KAATUXNTWXVJKI-NSHGMRRFSA-N
NAME: cis-Cypermethrin
RETENTION_INDEX: None
RETENTION_TIME: None
NUM PEAKS: 3
77.039125 0.9168911189333506
163.008129 1.0
208.076238 0.9840348620207192

INCHIKEY: KAATUXNTWXVJKI-UHFFFAOYSA-N
NAME: trans-Cypermethrin
RETENTION_INDEX: None
RETENTION_TIME: None
NUM PEAKS: 3
77.039125 0.8914159940966627
163.008129 0.8975874509161372
208.076238 1.0

INCHIKEY: NYPJDWWKZLNGGM-RPWUZVMVSA-N
NAME: cis-Fenvalerate
RETENTION_INDEX: None
RETENTION_TIME: None
NUM PEAKS: 3
77.039125 0.7127895134284701
167.062752 1.0
208.076238 0.7914008982070725

INCHIKEY: NYPJDWWKZLNGGM-UHFFFAOYSA-N
NAME: trans-Fenvalerate
RETENTION_INDEX: None
RETENTION_TIME: None
NUM PEAKS: 3
152.039277 0.5873825029771966
167.062752 1.0
208.076238 0.6848450914932421

INCHIKEY: OWZREIFADZCYQD-NSHGMRRFSA-N
NAME: Deltamethrin
RETENTION_INDEX: None
RETENTION_TIME: None
NUM PEAKS: 3
77.039125 1.0
208.076238 0.6770432564918657
252.905045 0.42129264307667535

INCHIKEY: QQODLKZGRKWIFG-CVAIRZPRSA-N
NAME: cis-Cyfluthrin_isomer2
RETENTION_INDEX: None
RETENTION_TIME: None
NUM PEAKS: 3
77.039125 0.842836602006533
163.008129 0.883259411347342
226.066816 1.0

INCHIKEY: QQODLKZGRKWIFG-QSFXBCCZSA-N
NAME: cis-Cyfluthrin_isomer1
RETENTION_INDEX: None
RETENTION_TIME: None
NUM PEAKS: 3
77.039125 1.0
163.008129 0.7875529040412785
226.066816 0.8081012467259189

INCHIKEY: QQODLKZGRKWIFG-UHFFFAOYSA-N
NAME: trans-Cyfluthrin_Isomer2
RETENTION_INDEX: None
RETENTION_TIME: None
NUM PEAKS: 3
150.000304 0.5087939616362197
151.997354 0.32739702681662236
226.066816 1.0

INCHIKEY: QQODLKZGRKWIFG-ZAAXVRCTSA-N
NAME: trans-Cyfluthrin_isomer1
RETENTION_INDEX: None
RETENTION_TIME: None
NUM PEAKS: 3
77.039125 0.8656356729036971
163.008129 1.0
226.066816 0.8756630006225261

INCHIKEY: RLLPVAHGXHCWKJ-HKUYNNGSSA-N
NAME: cis-Permethrin
RETENTION_INDEX: None
RETENTION_TIME: None
NUM PEAKS: 3
77.039125 0.38308020421409056
163.008129 0.22329826891069124
183.080989 1.0

INCHIKEY: RLLPVAHGXHCWKJ-MJGOQNOKSA-N
NAME: trans-Permethrin
RETENTION_INDEX: None
RETENTION_TIME: None
NUM PEAKS: 3
77.039125 0.6757126498754685
163.008129 0.43724515125822694
183.080989 1.0

INCHIKEY: SBNFWQZLDJGRLK-SFTDATJTSA-N
NAME: cis-Phenothrin
RETENTION_INDEX: None
RETENTION_TIME: None
NUM PEAKS: 3
123.117375 0.7865603487250372
183.080989 1.0
350.188192 0.6762104129209774

INCHIKEY: SBNFWQZLDJGRLK-UHFFFAOYSA-N
NAME: trans-Phenothrin
RETENTION_INDEX: None
RETENTION_TIME: None
NUM PEAKS: 3
93.034039 1.0
106.041864 0.8001903508425622
183.080989 0.3518387244415075

INCHIKEY: SMKRKQBMYOFFMU-UHFFFAOYSA-N
NAME: cis-Prallethrin
RETENTION_INDEX: None
RETENTION_TIME: None
NUM PEAKS: 3
123.117375 1.0
133.065339 0.4167800331181468
300.172542 0.5798561067237586

INCHIKEY: ZCVAOQKBXKSDMS-UHFFFAOYSA-N
NAME: cis-Allethrin
RETENTION_INDEX: None
RETENTION_TIME: None
NUM PEAKS: 3
123.117375 0.8629706083286142
135.080989 0.5356212647204703
302.188192 0.451888169004394

INCHIKEY: ZXQYGBMAQZUVMI-GCMPRSNUSA-N
NAME: lambda-Cyhalothrin
RETENTION_INDEX: None
RETENTION_TIME: None
NUM PEAKS: 3
77.039125 0.9305463124882852
197.034486 0.8682294640484067
208.076238 1.0

INCHIKEY: HAPOJKSPCGLOOD-UHFFFAOYSA-N
NAME: 2,3-Benzofluorene
RETENTION_INDEX: None
RETENTION_TIME: None
NUM PEAKS: 3
215.086075 0.24690989615693154
216.0939 1.0
217.097254 0.18622085314832515

INCHIKEY: IKTHMQYJOWTSJO-UHFFFAOYSA-N
NAME: Celestolide
RETENTION_INDEX: None
RETENTION_TIME: None
NUM PEAKS: 3
229.159239 0.47685975839946765
244.182714 1.0
245.186068 0.1811936581958324

INCHIKEY: IMRYETFJNLKUHK-UHFFFAOYSA-N
NAME: Traseolide
RETENTION_INDEX: None
RETENTION_TIME: None
NUM PEAKS: 3
185.096639 0.2049170996021419
215.143589 0.5499408641367151
258.198364 1.0

INCHIKEY: VDBHOHJWUDKDRW-UHFFFAOYSA-N
NAME: Phantolide
RETENTION_INDEX: None
RETENTION_TIME: None
NUM PEAKS: 3
229.159239 0.46744502038632746
244.182714 1.0
245.186068 0.1811936581958324

INCHIKEY: WQINSVOOIJDOLJ-UHFFFAOYSA-N
NAME: Phosmet
RETENTION_INDEX: None
RETENTION_TIME: None
NUM PEAKS: 3
104.026214 0.9292610688191821
160.039852 1.0
161.047677 0.5557558201965141

INCHIKEY: JUVIOZPCNVVQFO-HBGVWJBISA-N
NAME: Rotenone
RETENTION_INDEX: None
RETENTION_TIME: None
NUM PEAKS: 3
192.078642 0.5439030400054283
394.141634 1.0
395.144988 0.2507234776841535

INCHIKEY: CXBMCYHAMVGWJQ-CABCVRRESA-N
NAME: trans-Tetramethrin
RETENTION_INDEX: None
RETENTION_TIME: None
NUM PEAKS: 3
123.117375 1.0
164.071152 0.456673800919382
331.178355 0.5827683147743533

INCHIKEY: CXBMCYHAMVGWJQ-HUUCEWRRSA-N
NAME: cis-Tetramethrin
RETENTION_INDEX: None
RETENTION_TIME: None
NUM PEAKS: 3
123.117375 1.0
164.071152 0.46167671728013454
331.178355 0.5764506859980771

INCHIKEY: APQSQLNWAIULLK-UHFFFAOYSA-N
NAME: 1,5-Dimethylnaphthalene
RETENTION_INDEX: None
RETENTION_TIME: None
NUM PEAKS: 3
141.070425 0.2114259028859367
155.086075 0.18959444844475562
156.0939 1.0

INCHIKEY: CVXBEEMKQHEXEN-UHFFFAOYSA-N
NAME: Carbaryl
RETENTION_INDEX: None
RETENTION_TIME: None
NUM PEAKS: 3
127.054775 0.3363099491527718
143.049689 0.9384686575660424
201.078977 0.6180449523714934

INCHIKEY: CWRYPZZKDGJXCA-UHFFFAOYSA-N
NAME: Acenaphthene
RETENTION_INDEX: None
RETENTION_TIME: None
NUM PEAKS: 3
153.070425 0.22076406647578137
154.07825 1.0
155.081604 0.1318691337799089

INCHIKEY: QHJMFSMPSZREIF-UHFFFAOYSA-N
NAME: 2,6-Dimethylnaphthalene
RETENTION_INDEX: None
RETENTION_TIME: None
NUM PEAKS: 3
75.023475 0.16052905027942488
155.086075 0.31455162255533603
156.0939 1.0

INCHIKEY: QIMMUPPBPVKWKM-UHFFFAOYSA-N
NAME: 2-Methylnaphthalene
RETENTION_INDEX: None
RETENTION_TIME: None
NUM PEAKS: 3
141.070425 0.26673253766119415
142.07825 1.0
143.081604 0.12113414294808202

INCHIKEY: QNLZIZAQLLYXTC-UHFFFAOYSA-N
NAME: 1,2-Dimethylnaphthalene
RETENTION_INDEX: None
RETENTION_TIME: None
NUM PEAKS: 3
141.070425 0.19944361427111923
155.086075 0.32662011854579814
156.0939 1.0

INCHIKEY: QPUYECUOLPXSFR-UHFFFAOYSA-N
NAME: 1-Methylnaphthalene
RETENTION_INDEX: None
RETENTION_TIME: None
NUM PEAKS: 3
141.070425 0.23443178536438797
142.07825 1.0
143.081604 0.12113414294808202

INCHIKEY: RJKGJBPXVHTNJL-UHFFFAOYSA-N
NAME: 1-Nitronaphthalene
RETENTION_INDEX: None
RETENTION_TIME: None
NUM PEAKS: 3
127.054775 1.0
143.049689 0.3497459251992773
173.047677 0.5817938148669057

INCHIKEY: SDDBCEWUYXVGCQ-UHFFFAOYSA-N
NAME: 1,3-Dimethylnaphthalene
RETENTION_INDEX: None
RETENTION_TIME: None
NUM PEAKS: 3
141.070425 0.13786168378874303
155.086075 0.19881225062746963
156.0939 1.0

INCHIKEY: XAABPYINPXYOLM-UHFFFAOYSA-N
NAME: 1,8-Dimethylnaphthalene
RETENTION_INDEX: None
RETENTION_TIME: None
NUM PEAKS: 3
75.023475 0.16397837431119927
141.070425 0.2633334816962152
156.0939 1.0

INCHIKEY: YGYNBBAUIYTWBF-UHFFFAOYSA-N
NAME: 1,4-Dimethylnaphthalene
RETENTION_INDEX: None
RETENTION_TIME: None
NUM PEAKS: 3
75.023475 0.16165911380206707
155.086075 0.2466429422608597
156.0939 1.0

INCHIKEY: DQZCVNGCTZLGAQ-UHFFFAOYSA-N
NAME: Cycluron
RETENTION_INDEX: None
RETENTION_TIME: None
NUM PEAKS: 3
110.10955 0.20052517133656628
111.117375 0.1935501569952217
198.173212 1.0

INCHIKEY: UHXUZOCRWCRNSJ-UHFFFAOYSA-N
NAME: Methomyl
RETENTION_INDEX: None
RETENTION_TIME: None
NUM PEAKS: 3
88.022095 0.5119132765707526
115.050751 0.15415899459892857
162.046297 0.4667061518162281

INCHIKEY: MCWXGJITAZMZEV-UHFFFAOYSA-N
NAME: Dimethoate
RETENTION_INDEX: None
RETENTION_TIME: None
NUM PEAKS: 3
93.010539 0.5019737515062894
124.98261 1.0
228.999619 0.7236273817747714

INCHIKEY: XLNZEKHULJKQBA-UHFFFAOYSA-N
NAME: Terbufos
RETENTION_INDEX: None
RETENTION_TIME: None
NUM PEAKS: 3
230.973702 0.2948894281743309
287.036302 1.0
289.032098 0.13235712283810105

INCHIKEY: RDYMFSUJUZBWLH-UHFFFAOYSA-N
NAME: Endosulfan
RETENTION_INDEX: None
RETENTION_TIME: None
NUM PEAKS: 3
370.845073 1.0
405.813925 0.9816125233550934
407.810975 0.784631277115085

INCHIKEY: ASLWPAWFJZFCKF-UHFFFAOYSA-N
NAME: Tris(1,3-dichloro-2-propyl)phosphate
RETENTION_INDEX: None
RETENTION_TIME: None
NUM PEAKS: 3
110.976829 0.4939943317099847
112.973879 0.3191208751830079
429.880954 0.1641827916129951

INCHIKEY: BOSMZFBHAYFUBJ-UHFFFAOYSA-N
NAME: Tri-p-cresyl-phosphate
RETENTION_INDEX: None
RETENTION_TIME: None
NUM PEAKS: 3
91.054775 0.27122923577354957
107.049689 1.0
368.117742 0.35349182324733003

INCHIKEY: GTVWRXDRKAHEAD-UHFFFAOYSA-N
NAME: Tris(2-ethylhexyl) phosphate
RETENTION_INDEX: None
RETENTION_TIME: None
NUM PEAKS: 3
70.07825 0.048363085194396624
99.117375 0.12113296910847163
113.133025 0.12901860085596867

INCHIKEY: HQUQLFOMPYWACS-UHFFFAOYSA-N
NAME: Tris(2-chloroethyl) phosphate
RETENTION_INDEX: None
RETENTION_TIME: None
NUM PEAKS: 3
283.953873 0.4095780155674027
285.950923 0.39576052927016164
287.947973 0.1278934824808766

INCHIKEY: KRTSDMXIXPKRQR-AATRIKPKSA-N
NAME: Monocrotophos
RETENTION_INDEX: None
RETENTION_TIME: None
NUM PEAKS: 3
109.005453 0.8085809004283999
193.026581 0.41615101257184206
223.060955 1.0

INCHIKEY: KVMPUXDNESXNOH-UHFFFAOYSA-N
NAME: Tris(1-chloro-2-propyl) phosphate
RETENTION_INDEX: None
RETENTION_TIME: None
NUM PEAKS: 3
77.015802 1.0
79.012852 0.3166190189190995
326.000823 0.16932988991913966

INCHIKEY: LIPMRGQQBZJCTM-UHFFFAOYSA-N
NAME: Tris(isopropylphenyl)phosphate
RETENTION_INDEX: None
RETENTION_TIME: None
NUM PEAKS: 3
119.086075 0.1494483010432162
120.057514 0.17570123384946398
135.080989 1.0

INCHIKEY: LLPMAOBOEQFPRE-UHFFFAOYSA-N
NAME: Tris(3,5-xylenyl)phosphate
RETENTION_INDEX: None
RETENTION_TIME: None
NUM PEAKS: 3
105.070425 0.37856953520362135
121.065339 1.0
410.164692 0.3835363460133126

INCHIKEY: LORSVOJSXMHDHF-UHFFFAOYSA-N
NAME: Tris(4-tert-butylphenyl) phosphate
RETENTION_INDEX: None
RETENTION_TIME: None
NUM PEAKS: 3
134.073164 0.6593905323381766
149.096639 1.0
181.041839 0.44945961240673765

INCHIKEY: RMLPZKRPSQVRAB-UHFFFAOYSA-N
NAME: Tri-m-cresyl phosphate
RETENTION_INDEX: None
RETENTION_TIME: None
NUM PEAKS: 3
91.054775 0.40003909251174136
107.049689 1.0
368.117742 0.5410751744742004

INCHIKEY: RYUJRXVZSJCHDZ-UHFFFAOYSA-N
NAME: Isodecyl diphenyl phosphate
RETENTION_INDEX: None
RETENTION_TIME: None
NUM PEAKS: 3
77.039125 0.459536555902033
93.034039 1.0
390.195992 0.6675876153149584

INCHIKEY: STCOOQWBFONSKY-UHFFFAOYSA-N
NAME: Tri-n-butyl-phosphate
RETENTION_INDEX: None
RETENTION_TIME: None
NUM PEAKS: 3
76.979239 0.04183950956918511
266.164692 0.6311696564003293
267.168046 0.08254775153899013

INCHIKEY: VEENJGZXVHKXNB-VOTSOKGWSA-N
NAME: Dicrotophos
RETENTION_INDEX: None
RETENTION_TIME: None
NUM PEAKS: 3
109.005453 0.5068781703420527
193.026581 0.7984832412703223
237.076605 0.7579878314044588

INCHIKEY: WTLBZVNBAKMVDP-UHFFFAOYSA-N
NAME: Tris(2-butoxyethyl) phosphate
RETENTION_INDEX: None
RETENTION_TIME: None
NUM PEAKS: 3
87.080989 0.21335565244793725
101.096639 0.16545424232613232
398.243334 0.35327544961256324

INCHIKEY: XZZNDPSIHUTMOC-UHFFFAOYSA-N
NAME: Triphenyl phosphate
RETENTION_INDEX: None
RETENTION_TIME: None
NUM PEAKS: 3
77.039125 0.37601129775139314
93.034039 1.0
326.070792 0.49303446227062575

INCHIKEY: YSMRWXYRXBRSND-UHFFFAOYSA-N
NAME: Tri-o-cresyl phosphate
RETENTION_INDEX: None
RETENTION_TIME: None
NUM PEAKS: 3
91.054775 1.0
107.049689 0.5532784880479854
367.109917 0.6115438163004225

INCHIKEY: AAPVQEMYVNZIOO-UHFFFAOYSA-N
NAME: Endosulfan sulphate
RETENTION_INDEX: None
RETENTION_TIME: None
NUM PEAKS: 3
262.85696 0.7718686015154528
386.839987 1.0
388.837037 0.6472737990160579

INCHIKEY: FHIVAFMUCKRCQO-UHFFFAOYSA-N
NAME: Diazinone
RETENTION_INDEX: None
RETENTION_TIME: None
NUM PEAKS: 3
290.097973 1.0
291.101327 0.13081175781807425
304.101047 0.06440260503372047

INCHIKEY: RLBIQVVOMOPOHC-UHFFFAOYSA-N
NAME: Methyl parathion
RETENTION_INDEX: None
RETENTION_TIME: None
NUM PEAKS: 3
124.98261 0.16329983935683767
251.001726 1.0
263.001726 0.23867461189175102

INCHIKEY: SBPBAQFWLVIOKP-UHFFFAOYSA-N
NAME: Chlorpyrifos
RETENTION_INDEX: None
RETENTION_TIME: None
NUM PEAKS: 3
153.01391 0.37992259906163084
348.926279 0.14460994189001197
350.923329 0.14023901071468972

INCHIKEY: WWJZWCUNLNYYAU-UHFFFAOYSA-N
NAME: Temephos
RETENTION_INDEX: None
RETENTION_TIME: None
NUM PEAKS: 3
341.007109 1.0
342.010463 0.14881617156074498
465.989719 0.22728276531270744

INCHIKEY: RZLXIANUDLLFHN-UHFFFAOYSA-N
NAME: 1,2,5,6-Tetrabromocyclooctane
RETENTION_INDEX: None
RETENTION_TIME: None
NUM PEAKS: 3
107.086075 0.7857486874653258
108.0939 1.0
267.92852 0.8621123027938871

INCHIKEY: OZQOUGTVRWVFRK-UHFFFAOYSA-N
NAME: 1,1-Dibromo-2,3,3,4,4,5-hexachloro-2-cyclopenta-2,4-dien-1-ylcyclooctane
RETENTION_INDEX: None
RETENTION_TIME: None
NUM PEAKS: 3
423.85354 0.2933026344034107
458.822392 0.32117142512706837
460.820352 0.31163487565193215

INCHIKEY: YFGYUFNIOHWBOB-UHFFFAOYSA-N
NAME: Pirimicarb
RETENTION_INDEX: None
RETENTION_TIME: None
NUM PEAKS: 3
72.044938 1.0
166.098036 0.4557913885889896
238.142974 0.4812344421989706

INCHIKEY: MIZGSAALSYARKU-UHFFFAOYSA-N
NAME: Cashmeran
RETENTION_INDEX: None
RETENTION_TIME: None
NUM PEAKS: 3
191.143589 0.39965025286363703
206.167064 1.0
207.170418 0.15473901723336805

INCHIKEY: PUYXTUJWRLOUCW-UHFFFAOYSA-N
NAME: Spiroxamine
RETENTION_INDEX: None
RETENTION_TIME: None
NUM PEAKS: 3
100.112624 0.348654335865403
297.266777 0.6087763889924025
298.270131 0.11970280039984635

INCHIKEY: WRPIRSINYZBGPK-UHFFFAOYSA-N
NAME: Quinoxyfen
RETENTION_INDEX: None
RETENTION_TIME: None
NUM PEAKS: 3
95.029703 0.7433392567229409
306.996695 1.0
308.993745 0.6408666159405334

INCHIKEY: YASYVMFAVPKPKE-UHFFFAOYSA-N
NAME: Acephate
RETENTION_INDEX: None
RETENTION_TIME: None
NUM PEAKS: 3
124.98261 1.0
136.016352 0.22978447822703246
183.011898 0.873322561674315

INCHIKEY: WEEGYLXZBRQIMU-UHFFFAOYSA-N
NAME: Eucalyptol
RETENTION_INDEX: None
RETENTION_TIME: None
NUM PEAKS: 3
96.0939 0.5320974041810044
139.112289 0.6673197230482201
154.135764 1.0

INCHIKEY: ZXFXBSWRVIQKOD-UHFFFAOYSA-N
NAME: cis-Heptachlor epoxide
RETENTION_INDEX: None
RETENTION_TIME: None
NUM PEAKS: 3
81.034039 1.0
352.844201 0.8645337770617988
387.813053 0.7423010521710272

INCHIKEY: ARSRBNBHOADGJU-UHFFFAOYSA-N
NAME: 7,12-Dimethylbenz[a]anthracene
RETENTION_INDEX: None
RETENTION_TIME: None
NUM PEAKS: 3
87.023475 0.2208606766549108
256.1252 1.0
257.128554 0.21745404669008278

INCHIKEY: DOWJXOHBNXRUOD-UHFFFAOYSA-N
NAME: 1-Methylphenanthrene
RETENTION_INDEX: None
RETENTION_TIME: None
NUM PEAKS: 3
191.086075 0.32937521960275795
192.0939 1.0
193.097254 0.16432677968176834

INCHIKEY: UORKIKBNUWJNJF-UHFFFAOYSA-N
NAME: 1,4-Chrysenequinone
RETENTION_INDEX: None
RETENTION_TIME: None
NUM PEAKS: 3
176.0626 0.26821335897593557
230.073164 0.4963172227616318
258.068078 1.0

INCHIKEY: BAZVSMNPJJMILC-UHFFFAOYSA-N
NAME: Triadimenol
RETENTION_INDEX: None
RETENTION_TIME: None
NUM PEAKS: 3
87.080989 0.4050209679085729
111.000152 0.49587967278961265
295.108752 0.5119227178474784

INCHIKEY: ISRUGXGCCGIOQO-UHFFFAOYSA-N
NAME: Propoxur
RETENTION_INDEX: None
RETENTION_TIME: None
NUM PEAKS: 3
135.080989 0.11565007273323377
151.075903 0.23093463586644453
209.105191 0.40154994619589524

INCHIKEY: RLPZXGWCSHFKJI-UHFFFAOYSA-N
NAME: 2-Bromoallyl(2,4,6-tribromophenyl) ether
RETENTION_INDEX: None
RETENTION_TIME: None
NUM PEAKS: 3
118.94963 0.812068443602334
120.94759 0.7952576265006269
449.711104 1.0

INCHIKEY: RZLLIOPGUFOWOD-UHFFFAOYSA-N
NAME: Allyl 2,4,6-tribromophenyl ether
RETENTION_INDEX: None
RETENTION_TIME: None
NUM PEAKS: 3
290.884309 0.10384587036586464
369.802639 0.2965471333763064
371.800599 0.2836060830807301

INCHIKEY: WURBVZBTWMNKQT-UHFFFAOYSA-N
NAME: Triadimefon
RETENTION_INDEX: None
RETENTION_TIME: None
NUM PEAKS: 3
85.065339 0.6990110838484235
111.000152 1.0
293.093102 0.8489551330021832

INCHIKEY: ZFMSMUAANRJZFM-UHFFFAOYSA-N
NAME: Estragole
RETENTION_INDEX: None
RETENTION_TIME: None
NUM PEAKS: 3
121.065339 0.23708207912916848
147.080989 0.21960854260217288
148.088814 1.0

INCHIKEY: ZOTBXTZVPHCKPN-HTXNQAPBSA-N
NAME: Kresoxim-methyl
RETENTION_INDEX: None
RETENTION_TIME: None
NUM PEAKS: 3
107.049689 0.48423132770014654
116.050024 1.0
313.131405 0.8683755898955696

INCHIKEY: BJIOGJUNALELMI-ONEGZZNKSA-N
NAME: Isoeugenol
RETENTION_INDEX: None
RETENTION_TIME: None
NUM PEAKS: 3
149.060253 0.43646804796531896
163.075903 0.276595729787234
164.083728 1.0

INCHIKEY: MRBKEAMVRSLQPH-UHFFFAOYSA-N
NAME: 2-tert-Butyl-4-methoxyphenol
RETENTION_INDEX: None
RETENTION_TIME: None
NUM PEAKS: 3
165.091553 0.6888459424380626
179.107203 0.24965145042085926
180.115028 0.8294133464674711

INCHIKEY: RRAFCDWBNXTKKO-UHFFFAOYSA-N
NAME: Eugenol
RETENTION_INDEX: None
RETENTION_TIME: None
NUM PEAKS: 3
137.060253 0.24064006685762396
149.060253 0.268351896498045
164.083728 1.0

INCHIKEY: DFBKLUNHFCTMDC-UHFFFAOYSA-N
NAME: Endrin
RETENTION_INDEX: None
RETENTION_TIME: None
NUM PEAKS: 3
342.901774 0.6127448198404206
344.898824 1.0
346.895874 0.636384428358409

INCHIKEY: DSSYKIVIOFKYAU-UHFFFAOYSA-N
NAME: Camphor
RETENTION_INDEX: None
RETENTION_TIME: None
NUM PEAKS: 3
95.086075 0.359438916232063
110.10955 0.4527900050642692
152.120114 1.0

INCHIKEY: GVYLCNUFSHDAAW-UHFFFAOYSA-N
NAME: Mirex
RETENTION_INDEX: None
RETENTION_TIME: None
NUM PEAKS: 3
236.84131 1.0
543.620324 0.7523045681531567
545.617374 0.802255590380026

INCHIKEY: HCTWZIFNBBCVGM-UHFFFAOYSA-N
NAME: Endrin aldehyde
RETENTION_INDEX: None
RETENTION_TIME: None
NUM PEAKS: 3
342.901774 0.6127448198404206
344.898824 1.0
346.895874 0.636384428358409

INCHIKEY: HEOCBCNFKCOKBX-SDNWHVSQSA-N
NAME: Enzacamene
RETENTION_INDEX: None
RETENTION_TIME: None
NUM PEAKS: 3
77.039125 0.2192218590608892
254.167064 1.0
255.170418 0.1985078317119451

INCHIKEY: IZHZFAQWVKBTSL-UHFFFAOYSA-N
NAME: Endrin ketone
RETENTION_INDEX: None
RETENTION_TIME: None
NUM PEAKS: 3
344.898824 1.0
346.895874 0.636384428358409
379.867676 0.6315805120215364

INCHIKEY: JRJBVWJSTHECJK-LUAWRHEFSA-N
NAME: Isomethyl-alpha-ionone
RETENTION_INDEX: None
RETENTION_TIME: None
NUM PEAKS: 3
92.0626 0.17182745272427152
150.104464 0.24396345967826444
206.167064 1.0

INCHIKEY: NSSHGPBKKVJJMM-PKNBQFBNSA-N
NAME: delta-Iraldeine
RETENTION_INDEX: None
RETENTION_TIME: None
NUM PEAKS: 3
79.054775 0.31368052816954795
191.143589 0.2287750344681907
206.167064 1.0

INCHIKEY: NXLOLUFNDSBYTP-UHFFFAOYSA-N
NAME: Retene
RETENTION_INDEX: None
RETENTION_TIME: None
NUM PEAKS: 3
191.086075 0.1959139976981963
219.117375 0.41843409645182966
234.14085 1.0

INCHIKEY: QTYCMDBMOLSEAM-UHFFFAOYSA-N
NAME: Ipconazole
RETENTION_INDEX: None
RETENTION_TIME: None
NUM PEAKS: 3
125.015802 0.9919725372646397
127.012852 0.32228404393807947
333.160788 0.8234936140641215

INCHIKEY: WTEVQBCEXWBHNA-JXMROGBWSA-N
NAME: Citral (Geranial)
RETENTION_INDEX: None
RETENTION_TIME: None
NUM PEAKS: 3
83.049689 0.15568426661077578
83.086075 0.15989041869760143
152.120114 0.6928778072528317

INCHIKEY: XMGQYMWWDOXHJM-UHFFFAOYSA-N
NAME: Limonene
RETENTION_INDEX: None
RETENTION_TIME: None
NUM PEAKS: 3
95.086075 0.229631417268812
135.117375 0.3094509618155339
136.1252 1.0

INCHIKEY: XWPZUHJBOLQNMN-UHFFFAOYSA-N
NAME: Metconazole
RETENTION_INDEX: None
RETENTION_TIME: None
NUM PEAKS: 3
125.015802 1.0
127.012852 0.32043298912383783
319.145138 0.6751840970830668

INCHIKEY: OTMOUPHCTWPNSL-UHFFFAOYSA-N
NAME: Chlorpyrifos oxon
RETENTION_INDEX: None
RETENTION_TIME: None
NUM PEAKS: 3
195.912369 0.11242717225252234
332.949122 0.2316824956560402
334.946172 0.2250904529437224

INCHIKEY: BFPYWIDHMRZLRN-SLHNCBLASA-N
NAME: 17-alpha-Ethynylestradiol
RETENTION_INDEX: None
RETENTION_TIME: None
NUM PEAKS: 3
81.034039 0.19169207832607374
296.177628 1.0
297.180982 0.21360191209771287

INCHIKEY: DNXHEGUUPJUMQT-CBZIJGRNSA-N
NAME: Estrone
RETENTION_INDEX: None
RETENTION_TIME: None
NUM PEAKS: 3
145.065339 0.1392302742297083
270.161978 1.0
271.165332 0.19291260668926963

INCHIKEY: MUMGGOZAMZWBJJ-DYKIIFRCSA-N
NAME: Testosterone
RETENTION_INDEX: None
RETENTION_TIME: None
NUM PEAKS: 3
79.054775 0.1657139656351443
288.208928 1.0
289.212282 0.20306485380726802

INCHIKEY: RJKFOVLPORLFTN-LEKSSAKUSA-N
NAME: Progesterone
RETENTION_INDEX: None
RETENTION_TIME: None
NUM PEAKS: 3
79.054775 0.2578032823820656
314.224578 1.0
315.227932 0.22810967432794965

INCHIKEY: VOXZDWNPVJITMN-ZBRFXRBCSA-N
NAME: 17-beta-Estradiol
RETENTION_INDEX: None
RETENTION_TIME: None
NUM PEAKS: 3
146.073164 0.12403213775107073
272.177628 1.0
273.180982 0.19399449215141407

INCHIKEY: ZMYFCFLJBGAQRS-UHFFFAOYSA-N
NAME: Epoxiconazole
RETENTION_INDEX: None
RETENTION_TIME: None
NUM PEAKS: 3
95.029703 0.32621762457813086
121.045353 1.0
329.073116 0.6397795239042372

INCHIKEY: FSVJFNAIGNNGKK-UHFFFAOYSA-N
NAME: Praziquantel
RETENTION_INDEX: None
RETENTION_TIME: None
NUM PEAKS: 3
311.175951 1.0
312.179305 0.20998725076169594
312.183776 0.08262047942288761

INCHIKEY: DNRJTBAOUJJKDY-UHFFFAOYSA-N
NAME: Tonalide
RETENTION_INDEX: None
RETENTION_TIME: None
NUM PEAKS: 3
243.174889 1.0
244.178243 0.18617124527948692
258.198364 0.7587416511095187

INCHIKEY: PRLVTUNWOQKEAI-UHFFFAOYSA-N
NAME: Buprofezin
RETENTION_INDEX: None
RETENTION_TIME: None
NUM PEAKS: 3
77.039125 0.4400438939989773
105.057849 0.7236428445376817
305.156182 0.6339956259778748

INCHIKEY: FOXFZRUHNHCZPX-UHFFFAOYSA-N
NAME: Metribuzin
RETENTION_INDEX: None
RETENTION_TIME: None
NUM PEAKS: 3
89.017344 0.4087501940155661
199.065356 0.2797765050066988
214.088831 0.7110935399413336

INCHIKEY: AAEVYOVXGOFMJO-UHFFFAOYSA-N
NAME: Prometryn
RETENTION_INDEX: None
RETENTION_TIME: None
NUM PEAKS: 3
226.112641 0.15411999320058517
240.128291 0.13143092217590122
241.136116 0.3025163075539816

INCHIKEY: BCQMBFHBDZVHKU-UHFFFAOYSA-N
NAME: Terbumeton
RETENTION_INDEX: None
RETENTION_TIME: None
NUM PEAKS: 3
210.135484 0.20064173709784747
224.151134 0.10278887324604243
225.158959 0.38599567143111085

INCHIKEY: DDUIUBPJPOKOMV-UHFFFAOYSA-N
NAME: Methoprotryne
RETENTION_INDEX: None
RETENTION_TIME: None
NUM PEAKS: 3
141.023492 0.12076990349882422
271.14668 1.0
272.150034 0.12034244475306316

INCHIKEY: FZXISNSWEXTPMF-UHFFFAOYSA-N
NAME: Terbuthylazine
RETENTION_INDEX: None
RETENTION_TIME: None
NUM PEAKS: 3
214.085947 0.14253786928173018
229.109422 0.3370143397436478
231.106472 0.10773926790446359

INCHIKEY: IROINLKCQGIITA-UHFFFAOYSA-N
NAME: Terbutryn
RETENTION_INDEX: None
RETENTION_TIME: None
NUM PEAKS: 3
226.112641 0.2204537610782927
240.128291 0.222046111700006
241.136116 0.5761039436333695

INCHIKEY: ISEUFVQQFVOBCY-UHFFFAOYSA-N
NAME: Prometon
RETENTION_INDEX: None
RETENTION_TIME: None
NUM PEAKS: 3
210.135484 0.13452240403290316
224.151134 0.0955587990367014
225.158959 0.33355505992483

INCHIKEY: MGLWZSOBALDPEK-UHFFFAOYSA-N
NAME: Simetryn
RETENTION_INDEX: None
RETENTION_TIME: None
NUM PEAKS: 3
198.081341 0.1402490985122315
212.096991 0.10694204069068158
213.104816 0.462286416087827

INCHIKEY: MXWJVTOOROXGIU-UHFFFAOYSA-N
NAME: Atrazine
RETENTION_INDEX: None
RETENTION_TIME: None
NUM PEAKS: 3
200.070297 0.11860227376584186
215.093772 0.5014525283042168
217.090822 0.15990750482827407

INCHIKEY: RQVYBGPQFYCBGX-UHFFFAOYSA-N
NAME: Ametryn
RETENTION_INDEX: None
RETENTION_TIME: None
NUM PEAKS: 3
212.096991 0.2387804019794043
226.112641 0.30488660610675594
227.120466 0.8234841350295586

INCHIKEY: ZJMZZNVGNSWOOM-UHFFFAOYSA-N
NAME: Secbumeton
RETENTION_INDEX: None
RETENTION_TIME: None
NUM PEAKS: 3
196.119834 0.238174842477488
224.151134 0.21648140286104156
225.158959 1.0

INCHIKEY: BIWJNBZANLAXMG-GPTKHRSPSA-N
NAME: trans-Chlordane
RETENTION_INDEX: None
RETENTION_TIME: None
NUM PEAKS: 3
372.825964 0.9578988404238441
374.823014 0.9240269759357086
409.791866 1.0

INCHIKEY: BIWJNBZANLAXMG-KMMBHOGFSA-N
NAME: cis-Chlordane
RETENTION_INDEX: None
RETENTION_TIME: None
NUM PEAKS: 3
372.825964 1.0
374.823014 0.9646394138308507
376.820064 0.5140187105288894

INCHIKEY: FRCCEHPWNOQAEU-UHFFFAOYSA-N
NAME: Heptachlor
RETENTION_INDEX: None
RETENTION_TIME: None
NUM PEAKS: 3
336.849287 1.0
338.846337 0.8054889017932652
371.818139 0.6670894070469161

INCHIKEY: QBYJBZPUGVGKQQ-SJJAEHHWSA-N
NAME: Aldrin
RETENTION_INDEX: None
RETENTION_TIME: None
NUM PEAKS: 3
262.85696 0.6212202149359184
328.90391 1.0
330.90096 0.6458488332035447

INCHIKEY: UGQQAJOWXNCOPY-HYXMNYRASA-N
NAME: syn-Dechlorane plus
RETENTION_INDEX: None
RETENTION_TIME: None
NUM PEAKS: 3
236.84131 1.0
651.714224 0.9201904167702609
653.711274 0.9985826101055434

INCHIKEY: UGQQAJOWXNCOPY-UHFFFAOYSA-N
NAME: anti-Dechlorane plus
RETENTION_INDEX: None
RETENTION_TIME: None
NUM PEAKS: 3
650.706399 0.9221970042579879
652.703449 1.0
654.700499 0.7402155484421222

