SCANNUMBER: -1
SPECTRUMTYPE: Centroid
FORMULA: C13H6Cl6O
INCHIKEY: AMJYFQPBRAAINT-UHFFFAOYSA-N
SMILES: COC1=C(C=C(C(=C1Cl)Cl)C2=CC(=C(C=C2Cl)Cl)Cl)Cl
AUTHORS: Price et al., RECETOX, Masaryk University (CZ)
INSTRUMENT: Q Exactive GC Orbitrap GC-MS/MS
IONIZATION: EI+
LICENSE: CC BY-NC
NAME: 2,2',3,4',5,5'-Hexachloro-4-methoxybiphenyl
RETENTION_TIME: None
RETENTION_INDEX: 2554.1
PRECURSOR_MZ: 387.85245
ADDUCT: [M]+
COLLISION_ENERGY: 70eV
INSTRUMENT_TYPE: GC-EI-Orbitrap
NUM PEAKS: 164
79.92521 0.03843721440597007
81.92316 0.04360431291936547
82.94454 0.011739409086065215 "Theoretical m/z 82.94553, Mass diff 0 (0 ppm), Formula CHCl2"
83.98741 0.031929294872929365
84.4913 0.016763416400284826
84.9859 0.015291742244551144 "Theoretical m/z 84.984503, Mass diff -0.002 (0 ppm), Formula C4H2Cl"
85.00684 0.030575859234409367 "Theoretical m/z 85.007825, Mass diff 0 (0 ppm), Formula C7H"
86.01468 0.022361106456463185 "Theoretical m/z 86.01565, Mass diff 0 (0 ppm), Formula C7H2"
95.97566 0.019483561268827318
96.98351 0.02523149708414026 "Theoretical m/z 96.984503, Mass diff 0 (0 ppm), Formula C5H2Cl"
98.01462 0.037636091968479266
101.47172 0.011706178037835573
101.97564 0.010885662977298581
102.47029 0.01315309365055397
106.94444 0.04266320586794414 "Theoretical m/z 106.94553, Mass diff 0.001 (0 ppm), Formula C3HCl2"
107.97555 0.025797083876671956
108.9415 0.06460153431421095
108.98338 0.03568054362605902 "Theoretical m/z 108.984503, Mass diff 0.001 (0 ppm), Formula C6H2Cl"
110.01453 0.028073834305663136
110.93845 0.011401450266959226
119.45996 0.013149610509521402
119.96385 0.043995177826587774
120.45847 0.01342270759426415
120.96214 0.04081394039649065 "Theoretical m/z 120.96118, Mass diff -0.002 (0 ppm), Formula C4H3Cl2"
121.06415 0.025306149268973423
121.96088 0.010697008527858915
122.01438 0.02468059596731345
122.94334 0.011684337802171898
125.96384 0.026643957842320275
126.96236 0.035309918592404343
128.00163 0.014105309097700788
130.94437 0.022853359009417283 "Theoretical m/z 130.94553, Mass diff 0.001 (0 ppm), Formula C5HCl2"
131.97546 0.03218205794515766
132.94132 0.041946337787862775
132.98328 0.0277522556633049 "Theoretical m/z 132.984503, Mass diff 0.001 (0 ppm), Formula C8H2Cl"
133.97255 0.01227637763876175
134.01444 0.03021125909335157
135.0222 0.026360034778692514 "Theoretical m/z 135.023475, Mass diff 0.001 (0 ppm), Formula C11H3"
137.44815 0.06620434402287351
137.94972 0.017097421383624117
138.44669 0.09489045803869411
138.94832 0.013197527233455927
139.44518 0.04593952363433571
140.90523 0.01218365077613796 "Theoretical m/z 140.906558, Mass diff 0.001 (0 ppm), Formula C3Cl3"
142.90219 0.019343576654896787
143.95198 0.030550724135606777
144.95055 0.028065173522555126
144.98317 0.010800561369367714 "Theoretical m/z 144.984503, Mass diff 0.001 (0 ppm), Formula C9H2Cl"
146.01422 0.025198925008538403
147.02211 0.010379007165480077 "Theoretical m/z 147.023475, Mass diff 0.001 (0 ppm), Formula C12H3"
149.02249 0.07174234998676407
154.94411 0.011529385095696005 "Theoretical m/z 154.94553, Mass diff 0.001 (0 ppm), Formula C7HCl2"
155.9753 0.01469508959956681
156.94121 0.01266997257544201
161.93097 0.013524001101049121
167.97524 0.010757916426455454
168.94099 0.010899407263535204 "Theoretical m/z 168.937858, Mass diff -0.004 (0 ppm), Formula C5H4Cl3"
168.98308 0.03042024755530569 "Theoretical m/z 168.984503, Mass diff 0.001 (0 ppm), Formula C11H2Cl"
169.99075 0.02358745451676784
173.41544 0.013839178295023175
174.4138 0.012570467708646737
180.95966 0.017526883259045153 "Theoretical m/z 180.96118, Mass diff 0.001 (0 ppm), Formula C9H3Cl2"
181.99069 0.022091210095912524
182.9568 0.01879484073384698 "Theoretical m/z 182.953508, Mass diff -0.004 (0 ppm), Formula C6H6Cl3"
183.98781 0.012666112878622137
193.92583 0.016255160226370278
194.92435 0.033662675300839835
195.92291 0.024409193383613574
196.92146 0.010539514069818715
202.94395 0.013537274692551613 "Theoretical m/z 202.94553, Mass diff 0.001 (0 ppm), Formula C11HCl2"
203.9283 0.013560056317683549
204.95953 0.17205577619632714 "Theoretical m/z 204.96118, Mass diff 0.001 (0 ppm), Formula C11H3Cl2"
205.96286 0.03061200858999062
206.95659 0.10545774309782656 "Theoretical m/z 206.953508, Mass diff -0.004 (0 ppm), Formula C8H6Cl3"
207.03119 0.02655612620493145
207.95984 0.015314994564417211
208.95361 0.01707661667637553
215.92845 0.016155843637468657
216.95979 0.020524832159671703 "Theoretical m/z 216.96118, Mass diff 0.001 (0 ppm), Formula C12H3Cl2"
217.96735 0.056051741024510396
218.95664 0.01672463115419244 "Theoretical m/z 218.953508, Mass diff -0.004 (0 ppm), Formula C9H6Cl3"
219.96429 0.04405665055886527
221.97989 0.011276151328733578
238.92049 0.04127380915173654 "Theoretical m/z 238.922208, Mass diff 0.001 (0 ppm), Formula C11H2Cl3"
239.92831 0.06091495901755089
240.9174 0.04712793369906942 "Theoretical m/z 240.914536, Mass diff -0.003 (0 ppm), Formula C8H5Cl4"
241.92528 0.05799806375014168
242.9145 0.020426927654972477 "Theoretical m/z 242.917123, Mass diff 0.002 (0 ppm), Formula C10H2Cl3O"
243.92241 0.017604265473336274
250.89694 0.01981926075320948 "Theoretical m/z 250.898886, Mass diff 0.001 (0 ppm), Formula C9H3Cl4"
251.9281 0.05345360023105463
252.89392 0.03371925280788237 "Theoretical m/z 252.891214, Mass diff -0.003 (0 ppm), Formula C6H6Cl5"
253.92516 0.07444018392490875
254.89101 0.02698398771825644 "Theoretical m/z 254.8938, Mass diff 0.002 (0 ppm), Formula C8H3Cl4O"
254.93407 0.014075749468397368 "Theoretical m/z 254.930186, Mass diff -0.004 (0 ppm), Formula C9H7Cl4"
255.94081 0.04261142944718974
274.89697 0.37835534741225213 "Theoretical m/z 274.898886, Mass diff 0.001 (0 ppm), Formula C11H3Cl4"
275.90021 0.05774106442530621
276.89389 0.4693160692546342 "Theoretical m/z 276.891214, Mass diff -0.003 (0 ppm), Formula C8H6Cl5"
277.89712 0.06066106627796068
278.8909 0.23083387525987056 "Theoretical m/z 278.8938, Mass diff 0.002 (0 ppm), Formula C10H3Cl4O"
279.89416 0.025700685595121946
280.88797 0.047361680704038824
282.94644 0.011548401162954894 "Theoretical m/z 282.948423, Mass diff 0.001 (0 ppm), Formula C13H6Cl3O"
284.85782 0.046723324505610495 "Theoretical m/z 284.859913, Mass diff 0.002 (0 ppm), Formula C9H2Cl5"
284.94357 0.012313280105917613
286.85492 0.08555102726301556 "Theoretical m/z 286.852241, Mass diff -0.003 (0 ppm), Formula C6H5Cl6"
287.90472 0.059608875269284455
288.85196 0.06156225841592771 "Theoretical m/z 288.854828, Mass diff 0.002 (0 ppm), Formula C8H2Cl5O"
288.89401 0.014020866462397703 "Theoretical m/z 288.891214, Mass diff -0.003 (0 ppm), Formula C9H6Cl5"
289.90176 0.07783059809485365
290.84894 0.025740129813842116 "Theoretical m/z 290.847156, Mass diff -0.002 (0 ppm), Formula C5H5Cl6O"
290.90469 0.010470227804954645
291.89877 0.04235546565076936
293.89627 0.010480394811211872
302.8916 0.03977624678562566 "Theoretical m/z 302.8938, Mass diff 0.002 (0 ppm), Formula C12H3Cl4O"
304.88873 0.05209734042412985 "Theoretical m/z 304.886128, Mass diff -0.003 (0 ppm), Formula C9H6Cl5O"
306.88568 0.024148805056692358
308.8577 0.05705083766717665 "Theoretical m/z 308.859913, Mass diff 0.002 (0 ppm), Formula C11H2Cl5"
309.86584 0.014748937077151386
310.85477 0.0831358925821899 "Theoretical m/z 310.852241, Mass diff -0.003 (0 ppm), Formula C8H5Cl6"
311.86316 0.026166108548230583
312.85187 0.058671533775736175 "Theoretical m/z 312.854828, Mass diff 0.002 (0 ppm), Formula C10H2Cl5O"
313.8591 0.016800695423227995
314.849 0.021367940567446977 "Theoretical m/z 314.847156, Mass diff -0.002 (0 ppm), Formula C7H5Cl6O"
317.91495 0.02659509972891749
318.9043 0.011318796271645839
319.91196 0.034902955925274766
321.90921 0.039697546626078974
323.86233 0.04038457266001644
325.85944 0.026878928653598425
337.86032 0.09630357776950192
338.86264 0.01017359598350535
339.85718 0.15152416603248395
340.86121 0.010669237538545193
341.85416 0.09742449020936125
343.85147 0.030070897923633735
344.83404 0.36307923223287414 "Theoretical m/z 344.836591, Mass diff 0.002 (0 ppm), Formula C11H3Cl6"
345.83752 0.046188615287637784
346.83106 0.693871159178039
347.83447 0.08355095119874652
348.82806 0.5537755554292002 "Theoretical m/z 348.831506, Mass diff 0.003 (0 ppm), Formula C10H3Cl6O"
349.83139 0.0677228052351798
350.8251 0.23343691127856128
351.8284 0.02824526132783361
352.8223 0.056908687857469116
352.88351 0.05135656105155463
354.88055 0.07852355488244117
355.88608 0.011658261313901047
356.87756 0.053024797328261375
358.87494 0.016297428613495233
372.82886 0.053328113014935334
374.82593 0.10057852148382561
376.82309 0.07981175223081062
378.82022 0.032107782316111805
387.85245 0.5272272427568553
388.85584 0.06995154480128962
389.84943 1.0
390.85281 0.13991212694147456
391.8464 0.7970921608992755
392.84979 0.11646098561971104
393.84323 0.3347685443369963
394.84674 0.04657731499908309
395.84024 0.08150983055366127

SCANNUMBER: -1
SPECTRUMTYPE: Centroid
FORMULA: C13H19N3O4
INCHIKEY: CHIFOSRWCNZCFN-UHFFFAOYSA-N
SMILES: CCC(CC)NC1=C(C=C(C(=C1[N+](=O)[O-])C)C)[N+](=O)[O-]
AUTHORS: Price et al., RECETOX, Masaryk University (CZ)
INSTRUMENT: Q Exactive GC Orbitrap GC-MS/MS
IONIZATION: EI+
LICENSE: CC BY-NC
NAME: Pendimethalin
RETENTION_TIME: None
RETENTION_INDEX: 2044.6
PRECURSOR_MZ: 281.13574
ADDUCT: [M]+
COLLISION_ENERGY: 70eV
INSTRUMENT_TYPE: GC-EI-Orbitrap
NUM PEAKS: 86
76.03043 0.011550080596860256 "Theoretical m/z 76.0313, Mass diff 0 (0 ppm), Formula C6H4"
77.03824 0.11506108818275705 "Theoretical m/z 77.039125, Mass diff 0 (0 ppm), Formula C6H5"
78.04609 0.05181553703723219 "Theoretical m/z 78.04695, Mass diff 0 (0 ppm), Formula C6H6"
79.05389 0.06760975531574824 "Theoretical m/z 79.054775, Mass diff 0 (0 ppm), Formula C6H7"
80.04912 0.02043207798948267 "Theoretical m/z 80.050024, Mass diff 0 (0 ppm), Formula C5H6N"
81.04438 0.1859696942851974 "Theoretical m/z 81.045273, Mass diff 0 (0 ppm), Formula C4H5N2"
89.0382 0.04939904458360997 "Theoretical m/z 89.039125, Mass diff 0 (0 ppm), Formula C7H5"
90.04605 0.043400193489547656 "Theoretical m/z 90.04695, Mass diff 0 (0 ppm), Formula C7H6"
94.04096 0.09213420694533728 "Theoretical m/z 94.041313, Mass diff 0 (-3.76 ppm), SMILES [OH+]C1=CC=CC=C1, Annotation [C6H6O-H]+, Rule of HR True"
95.04875 0.018408470530222397 "Theoretical m/z 95.049141, Mass diff 0 (-4.11 ppm), SMILES C\C(=C\C=C)C#[O+], Annotation [C6H7O]+, Rule of HR True"
102.04597 0.017537240645407185 "Theoretical m/z 102.04695, Mass diff 0 (0 ppm), Formula C8H6"
103.05379 0.07625742408833995 "Theoretical m/z 103.054775, Mass diff 0 (0 ppm), Formula C8H7"
104.04903 0.07442187505488754 "Theoretical m/z 104.050024, Mass diff 0 (0 ppm), Formula C7H6N"
105.06944 0.08045271186150425 "Theoretical m/z 105.070425, Mass diff 0 (0 ppm), Formula C8H9"
106.06467 0.06413098318070207 "Theoretical m/z 106.065674, Mass diff 0 (0 ppm), Formula C7H8N"
107.05991 0.03105311840251798 "Theoretical m/z 107.060923, Mass diff 0 (0 ppm), Formula C6H7N2"
108.04392 0.014343046671092798 "Theoretical m/z 108.044939, Mass diff 0 (0 ppm), Formula C6H6NO"
115.05373 0.04370551913950392 "Theoretical m/z 115.054775, Mass diff 0 (0 ppm), Formula C9H7"
116.04897 0.055112260931841094 "Theoretical m/z 116.050024, Mass diff 0.001 (0 ppm), Formula C8H6N"
117.05676 0.18040020095425277 "Theoretical m/z 117.057849, Mass diff 0.001 (0 ppm), Formula C8H7N"
118.06457 0.16533665929856362 "Theoretical m/z 118.065674, Mass diff 0.001 (0 ppm), Formula C8H8N"
119.05984 0.14596484387349695 "Theoretical m/z 119.060923, Mass diff 0.001 (0 ppm), Formula C7H7N2"
120.04384 0.03413708447938512 "Theoretical m/z 120.044939, Mass diff 0.001 (0 ppm), Formula C7H6NO"
120.0802 0.06158874337836746 "Theoretical m/z 120.081324, Mass diff 0.001 (0 ppm), Formula C8H10N"
121.06427 0.028341427049632384 "Theoretical m/z 121.06534, Mass diff 0.001 (0 ppm), Formula C8H9O"
128.06146 0.015732030698380247 "Theoretical m/z 128.0626, Mass diff 0.001 (0 ppm), Formula C10H8"
129.04413 0.020459055214228253 "Theoretical m/z 129.045273, Mass diff 0.001 (0 ppm), Formula C8H5N2"
130.06456 0.08491000529554964 "Theoretical m/z 130.065674, Mass diff 0.001 (0 ppm), Formula C9H8N"
131.05983 0.0904685485627369 "Theoretical m/z 131.060923, Mass diff 0.001 (0 ppm), Formula C8H7N2"
132.08018 0.37895198504073097 "Theoretical m/z 132.081324, Mass diff 0.001 (0 ppm), Formula C9H10N"
133.08797 0.37547892120959836 "Theoretical m/z 133.089149, Mass diff 0.001 (0 ppm), Formula C9H11N"
134.09578 0.17573716158539798 "Theoretical m/z 134.096974, Mass diff 0.001 (0 ppm), Formula C9H12N"
135.05464 0.03428305788571449 "Theoretical m/z 135.055838, Mass diff 0.001 (0 ppm), Formula C7H7N2O"
142.06447 0.022878223435309986 "Theoretical m/z 142.065674, Mass diff 0.001 (0 ppm), Formula C10H8N"
143.07228 0.038347974035120996 "Theoretical m/z 143.073499, Mass diff 0.001 (0 ppm), Formula C10H9N"
144.08011 0.08171498800817077 "Theoretical m/z 144.081324, Mass diff 0.001 (0 ppm), Formula C10H10N"
145.07535 0.08264749982875089 "Theoretical m/z 145.076573, Mass diff 0.001 (0 ppm), Formula C9H9N2"
146.08316 0.08850218880522565
147.05458 0.08742909627888841 "Theoretical m/z 147.055294, Mass diff 0.001 (4.86 ppm), SMILES O=[N+]C=1C=C(C(=CC=1(N))C)C, Annotation [C8H11N2O-4H]+, Rule of HR False"
148.06232 0.036881475082814315
149.02258 0.014090920766985277 "Theoretical m/z 149.023869, Mass diff 0.001 (0 ppm), Formula C8H5O3"
156.07999 0.016387113460004987 "Theoretical m/z 156.081324, Mass diff 0.001 (0 ppm), Formula C11H10N"
157.07527 0.02396598465607908 "Theoretical m/z 157.076573, Mass diff 0.001 (0 ppm), Formula C10H9N2"
158.09567 0.044265948342484186 "Theoretical m/z 158.096974, Mass diff 0.001 (0 ppm), Formula C11H12N"
159.0909 0.054977018039118565 "Theoretical m/z 159.092223, Mass diff 0.001 (0 ppm), Formula C10H11N2"
160.0749 0.12757082248755588 "Theoretical m/z 160.076239, Mass diff 0.001 (0 ppm), Formula C10H10NO"
161.07013 0.14302842921966608 "Theoretical m/z 161.071488, Mass diff 0.001 (0 ppm), Formula C9H9N2O"
162.07793 0.29332720678638297 "Theoretical m/z 162.076633, Mass diff -0.002 (0 ppm), Formula C6H12NO4"
163.04936 0.0672959358193436
164.05713 0.03657986806353254
171.09078 0.01944201658569657 "Theoretical m/z 171.092223, Mass diff 0.001 (0 ppm), Formula C11H11N2"
172.09851 0.0426473697452867 "Theoretical m/z 172.100048, Mass diff 0.001 (0 ppm), Formula C11H12N2"
173.10646 0.047658794037369195 "Theoretical m/z 173.107873, Mass diff 0.001 (0 ppm), Formula C11H13N2"
174.09047 0.10474342491209213 "Theoretical m/z 174.091889, Mass diff 0.001 (0 ppm), Formula C11H12NO"
175.08565 0.026594041123499595 "Theoretical m/z 175.087138, Mass diff 0.001 (0 ppm), Formula C10H11N2O"
176.04465 0.02543695694270268 "Theoretical m/z 176.045455, Mass diff 0.001 (4.57 ppm), SMILES O=[N+]C=1C=C(C(=C([N+]=O)C=1(N))C)C, Annotation [C8H11N3O2-5H]+, Rule of HR True"
176.05704 0.014536525241241705
177.06488 0.02690309912601476 "Theoretical m/z 177.066403, Mass diff 0.001 (0 ppm), Formula C9H9N2O2"
178.06032 0.016167727972094297 "Theoretical m/z 178.061105, Mass diff 0.001 (4.41 ppm), SMILES O=[N+]C=1C=C(C(=C([N+]=O)C=1(N))C)C, Annotation [C8H11N3O2-3H]+, Rule of HR True"
179.06807 0.022122257379519658 "Theoretical m/z 179.06893, Mass diff 0.001 (4.8 ppm), SMILES O=[N+]C=1C=C(C(=C([N+]=O)C=1(N))C)C, Annotation [C8H11N3O2-2H]+, Rule of HR False"
180.07582 0.018824408290389325
187.08554 0.011725652107857086
188.1172 0.013410425075437432 "Theoretical m/z 188.118772, Mass diff 0.001 (0 ppm), Formula C11H14N3"
189.07616 0.03324838663571888 "Theoretical m/z 189.078979, Mass diff 0.002 (0 ppm), Formula C11H11NO2"
190.06014 0.0254890452159144 "Theoretical m/z 190.062994, Mass diff 0.002 (0 ppm), Formula C11H10O3"
191.06793 0.22650879254442816 "Theoretical m/z 191.070819, Mass diff 0.002 (0 ppm), Formula C11H11O3"
192.0757 0.12611945877375094 "Theoretical m/z 192.077302, Mass diff 0.001 (0 ppm), Formula C9H10N3O2"
193.07918 0.022393099933959316
194.05501 0.03241692277191725
202.09644 0.034927712015189356 "Theoretical m/z 202.098037, Mass diff 0.001 (0 ppm), Formula C11H12N3O"
203.06805 0.01356338292093033 "Theoretical m/z 203.070819, Mass diff 0.002 (0 ppm), Formula C12H11O3"
208.07066 0.23125425927292015 "Theoretical m/z 208.071661, Mass diff 0.001 (4.81 ppm), SMILES O=[N+]C=1C(NC)=C(C=C(C=1C)C)[N+](=O)[O-], Annotation [C9H12N3O3-2H]+, Rule of HR False"
209.05919 0.1621934009591707 "Theoretical m/z 209.056232, Mass diff -0.004 (0 ppm), Formula C9H9N2O4"
210.06245 0.018158951784152343
211.05626 0.0446530838672793
218.0914 0.021656179853726906 "Theoretical m/z 218.092406, Mass diff 0.001 (4.61 ppm), SMILES O=[N+]C=1C=C(C(=C([N+]=O)C=1(NCCC))C)C, Annotation [C11H17N3O2-5H]+, Rule of HR True"
219.09938 0.013124611945108949 "Theoretical m/z 219.100231, Mass diff 0.001 (3.89 ppm), SMILES O=[N+]C=1C=C(C(=C([N+]=O)C=1(NCCC))C)C, Annotation [C11H17N3O2-4H]+, Rule of HR False"
220.10707 0.06350348140673685 "Theoretical m/z 220.108056, Mass diff 0.001 (4.48 ppm), SMILES O=[N+]C=1C=C(C(=C([N+]=O)C=1(NCCC))C)C, Annotation [C11H17N3O2-3H]+, Rule of HR True"
228.11204 0.016162129443255947 "Theoretical m/z 228.113687, Mass diff 0.001 (0 ppm), Formula C13H14N3O"
234.08623 0.013048263380264373 "Theoretical m/z 234.087322, Mass diff 0.001 (4.67 ppm), SMILES O=[N+]C=1C(NCCC)=C(C=C(C=1C)C)[N+](=O)[O-], Annotation [C11H16N3O3-4H]+, Rule of HR False"
236.10188 0.03849592339280508 "Theoretical m/z 236.102972, Mass diff 0.001 (4.63 ppm), SMILES O=[N+]C=1C(NCCC)=C(C=C(C=1C)C)[N+](=O)[O-], Annotation [C11H16N3O3-2H]+, Rule of HR False"
252.09671 1.0 "Theoretical m/z 252.097889, Mass diff 0.001 (4.68 ppm), SMILES O=[N+]([O-])C=1C=C(C(=C(C=1(NCCC))[N+](=O)[O-])C)C, Annotation [C11H15N3O4-H]+, Rule of HR True"
253.10007 0.1276237615176009
254.10142 0.010139704151781167
263.12518 0.02224427237567314
281.13574 0.03812972746361615 "Theoretical m/z 281.136994, Mass diff 0.001 (4.46 ppm), SMILES O=[N+]([O-])C=1C=C(C(=C(C=1(NC(CC)CC))[N+](=O)[O-])C)C, Annotation [C13H19N3O4]+, Rule of HR False"
