INCHIKEY: AMJYFQPBRAAINT-UHFFFAOYSA-N
NAME: 2,2',3,4',5,5'-Hexachloro-4-methoxybiphenyl
RETENTION_INDEX: None
RETENTION_TIME: None
NUM PEAKS: 202
71.976677 0.018347558377634066
74.01565 0.014835338055414937
82.968852 0.011932046971191223
83.976677 0.08258302070433401
85.973727 0.0268709108101792
86.963766 0.0284381426934232
89.987241 0.01359199244525366
95.976677 0.02124130370875128
96.984502 0.0262031203663906
98.963766 0.01176081871155539
101.002739 0.014636849567324674
102.995066 0.027082477747476356
106.945529 0.03976174063085537
107.976677 0.05154177098180117
108.942579 0.025798876604376443
108.984502 0.034322337738844355
109.973727 0.01626690459224595
110.981552 0.010976571635417045
113.987241 0.012311987951046866
118.945529 0.07511853642867898
119.976677 0.01657049188725942
120.942579 0.04855831632934275
120.984502 0.04332430729455538
122.963766 0.01743569313657137
122.981552 0.013913979371510024
123.971591 0.03383323776743647
125.968641 0.010842307409348644
129.937704 0.016300692010243596
131.934754 0.010535321542937626
131.976677 0.04021451773169738
132.984502 0.011877178634834958
133.932618 0.01498461051473178
133.973727 0.012906232894156764
135.971591 0.014640091024606887
137.002739 0.015452114371188017
138.995066 0.017478733091885326
141.937704 0.03435728088470795
142.945529 0.03674170156644715
143.934754 0.021718190825825035
143.953354 0.08083126052617898
143.976677 0.020071243412778095
144.942579 0.02342978501943539
144.984502 0.022532085088142063
145.950404 0.05247677794485685
145.992327 0.011616113990322722
146.963766 0.011658692106984107
147.971591 0.02370720776998398
153.937704 0.0232024751933282
154.945529 0.04623206282435213
155.934754 0.01480762723273049
155.976677 0.011794188337410376
156.942579 0.030023789684632332
156.984502 0.011734714992717797
158.940443 0.06257564098405415
159.971591 0.011834930745857395
160.937493 0.0406173871688398
162.010564 0.015141852321485844
164.906556 0.01110621988975835
166.903606 0.010644763410225968
166.945529 0.017107130770114644
167.976677 0.011605672717325322
168.942579 0.011060825130731818
168.961179 0.019007936524327727
168.984502 0.011603499571357718
170.958229 0.01217253525315099
170.963766 0.011773357457773678
171.971591 0.03151132824073133
173.963918 0.018923889900894407
173.968641 0.010080126940936575
175.960968 0.01213537458693991
177.937704 0.02501353097891927
178.922206 0.057184728959946064
178.945529 0.03575484309048399
179.934754 0.016199837874099957
179.953354 0.024743990583402847
179.976677 0.011477675306579466
180.919256 0.055601058778583984
180.942579 0.023078301560259994
180.984502 0.011551161924322489
181.950404 0.01583767516909521
182.916306 0.017847428057196586
189.010716 0.01158474773088889
192.961179 0.017773094460444037
194.940443 0.01599062252607335
194.958229 0.011382791777298866
196.937493 0.010200184136154655
196.979416 0.04582448202033793
198.971743 0.013466425812250195
198.976466 0.01473735512316102
202.922206 0.014528990915775579
203.930031 0.016796051183112892
203.953354 0.01709168353429821
204.919256 0.014001102155809807
205.927081 0.01620790169989994
205.932618 0.01759228713304781
205.950404 0.01095455491731533
207.929668 0.011216874756439829
207.948268 0.035228102991071465
208.93277 0.04647116083063105
209.945318 0.02257536003522732
210.92982 0.04452860078836956
212.92687 0.014307891644966706
213.010716 0.011362503896809841
214.922206 0.018846383703004736
216.919256 0.0181850064240498
218.91712 0.010438657038932016
220.91417 0.010055249540421373
232.956093 0.03441683316530813
233.940595 0.012890948990346604
234.953143 0.022263073954672703
235.937645 0.012359167625183418
242.91712 0.0330008674048617
244.91417 0.031867302008132314
247.979568 0.02562614627701583
249.891058 0.01659781301927981
249.976618 0.016649462163317107
250.898883 0.012310464506682833
251.888108 0.021448879975143966
251.930031 0.026321233078680506
252.895933 0.015711877591135383
252.937856 0.026386905657299228
253.885158 0.010192931115670932
253.927081 0.025281454847746063
254.934906 0.02531070859855423
257.940595 0.013277495979728313
259.937645 0.012776641302529208
266.91712 0.03917336875226159
267.924945 0.05162154155746737
268.91417 0.03760379158964217
269.921995 0.049536783512792344
270.91122 0.012296406724255755
271.919045 0.015982238768731352
273.891058 0.010075110742849431
275.888108 0.012935569303703926
280.93277 0.019611565071307638
281.940595 0.032389816796859816
282.92982 0.01870870167594232
283.937645 0.0314287722142857
285.891058 0.010028491164717483
287.888108 0.012757427432710527
301.885972 0.034722073897846484
302.893797 0.05656043067406112
303.883022 0.04440437801554241
304.890847 0.07191807938183861
305.880072 0.021363345090883668
306.887897 0.0343454307686377
317.917272 0.09791231562645887
318.906497 0.01256455655998399
318.920626 0.014081475985582912
319.914322 0.12565275310798024
320.917676 0.018133448927026986
321.867735 0.014497265548650145
321.911372 0.061527668171068466
322.87556 0.011048156451967283
323.864785 0.023048222105996028
323.908422 0.013298787155487326
324.87261 0.017603818217756105
325.861835 0.014699350120898983
326.86966 0.011274491345420157
337.862649 0.06722089382291685
339.859699 0.10726947512200967
340.863053 0.014849197729415368
341.856749 0.06870827254899495
342.883174 0.011040904949818126
343.853799 0.02192961012681433
351.878299 0.029783745317469572
352.886124 0.15891122449432815
353.875349 0.04741295160383323
353.889478 0.022278248749564432
354.883174 0.2567359597997364
355.872399 0.03097509463474988
355.886528 0.03776579970971649
356.836587 0.010356264779277107
356.880224 0.1659252931279539
357.883578 0.02342492162470563
358.833637 0.01960638808806739
358.877274 0.05308954224044001
360.830687 0.015885729910087933
372.831501 0.05638591633122878
374.828551 0.10824700057605195
375.831905 0.01490937522635859
376.825601 0.08750530265372931
377.828955 0.011404508272478407
378.822651 0.03727344061602288
386.847151 0.057698584350876644
387.854976 0.5208226743594901
388.844201 0.11043453635920499
388.85833 0.071437725592736
389.847555 0.016407213958222044
389.852026 1.0
390.841251 0.09033552149587337
390.85538 0.1467196392406556
391.844605 0.012779309096078344
391.849076 0.8046514767358857
391.858734 0.011596617955136314
392.838301 0.03793324970463791
392.85243 0.11686314741600697
393.846126 0.3495002697541834
394.84948 0.04766786386096857
395.843176 0.08207330100929404
396.84653 0.013262429696121507
397.840226 0.011468478303572222

INCHIKEY: CHIFOSRWCNZCFN-UHFFFAOYSA-N
NAME: Pendimethalin
RETENTION_INDEX: None
RETENTION_TIME: None
NUM PEAKS: 91
70.07825 0.048596121749405224
71.086075 0.24600964142935078
72.089429 0.013332108280288872
75.023475 0.015460759753305625
76.018724 0.02935850753244438
76.0313 0.025114482020957042
77.026549 0.06945623228110868
77.039125 0.03442805255101611
78.034374 0.08034416168234487
78.04695 0.023113063532689257
79.018389 0.01581744072207008
79.042199 0.016586489304238967
80.013638 0.032088621909023646
80.026214 0.027414837674092786
80.050024 0.011548771051304575
81.021463 0.019259601818274883
82.029288 0.017280784100113165
84.081324 0.011357079458301854
87.023475 0.015412133789650874
88.018724 0.014324247085458555
88.0313 0.018024663915621488
89.026549 0.024192884593290893
89.039125 0.021925612917751313
90.034374 0.03668819477127598
91.042199 0.016523766514678826
91.054775 0.018983452134895884
92.050024 0.027993910930185363
100.0313 0.010517423136490768
101.039125 0.02092254058466817
102.034374 0.016798488784295455
102.04695 0.03449206429663734
103.042199 0.022377050177216248
103.054775 0.024146753705175564
104.013638 0.019595071040319822
104.050024 0.022441050679987074
105.057849 0.017284859792110627
106.041864 0.011428357982026127
106.065674 0.022911369415644364
109.052763 0.011965185932597308
116.050024 0.014374894086062023
117.034039 0.013942014423422536
117.057849 0.01972327489157855
118.065674 0.054138570926959645
119.037113 0.012354843251826862
119.049689 0.015224906121770803
119.073499 0.023969418859996726
132.068748 0.018607771462193938
132.081324 0.013926086602375744
133.040187 0.012617889932959375
133.052763 0.028601656014037122
134.060588 0.03084094282142959
135.068413 0.023004204607066273
142.065674 0.013720963713359671
144.081324 0.013795586645902868
146.048012 0.010984630186962538
147.055837 0.019552554582868576
148.063662 0.027557784864090006
149.047677 0.019293696006885158
149.058911 0.01413117125546813
150.055502 0.022184432971417357
158.096974 0.013644827485043271
159.055837 0.013401499672104073
160.112624 0.013642367349508175
162.079312 0.011384691037583721
163.050751 0.027165553638979337
164.058576 0.01715859871387489
165.066401 0.03642771351804426
172.112624 0.013461439440843303
174.079312 0.020547896314537562
174.091888 0.013609917909966003
175.099713 0.019228159124358702
177.066401 0.02417177058144536
181.061315 0.014442376078873031
188.107538 0.013463311981281232
189.151749 0.013358400915577799
191.045665 0.013294820967450318
194.056564 0.011628945867119343
195.064389 0.05717358615194677
210.051478 0.015896802978883663
211.059303 0.01541564462952884
219.100775 0.01348071424826053
222.10044 0.012927366974352941
234.136826 0.019850419033455236
235.144651 0.033105706830749315
237.111339 0.020169515176192174
252.098428 0.11273371452048267
253.101782 0.013765768421747477
253.106253 0.02682827938884336
263.126989 0.03287501631116168
281.137553 0.5711766531441292
282.140907 0.08192379012342992