INCHIKEY: HXGDTGSAIMULJN-UHFFFAOYSA-N
NAME: Acenaphthylene
RETENTION_INDEX: None
RETENTION_TIME: None
NUM PEAKS: 5
74.01565 0.1525718894980593
75.023475 0.12694224652599956
87.023475 0.13076726290651208
152.0626 1.0
153.065954 0.12948116631842083

INCHIKEY: JLYXXMFPNIAWKQ-CDRYSYESSA-N
NAME: beta-Hexachlorocyclohexane
RETENTION_INDEX: None
RETENTION_TIME: None
NUM PEAKS: 5
108.961179 0.3186093966224169
287.860062 0.5197902919172391
289.857112 1.0
291.854162 0.799740875320779
293.851212 0.3409117618327884

INCHIKEY: JLYXXMFPNIAWKQ-DCLYFUHFSA-N
NAME: epsilon-Hexachlorocyclohexane
RETENTION_INDEX: None
RETENTION_TIME: None
NUM PEAKS: 5
219.919408 0.31593055039702383
287.860062 0.5197902919172391
289.857112 1.0
291.854162 0.799740875320779
293.851212 0.3409117618327884

INCHIKEY: JLYXXMFPNIAWKQ-GNIYUCBRSA-N
NAME: Lindane
RETENTION_INDEX: None
RETENTION_TIME: None
NUM PEAKS: 5
147.984654 0.22733070080001772
287.860062 0.5197902919172391
289.857112 1.0
291.854162 0.799740875320779
293.851212 0.3409117618327884

INCHIKEY: JLYXXMFPNIAWKQ-GPIVLXJGSA-N
NAME: delta-Hexachlorocyclohexane
RETENTION_INDEX: None
RETENTION_TIME: None
NUM PEAKS: 5
108.961179 0.3813841272778414
219.919408 0.4632947709367398
287.860062 0.5197902919172391
289.857112 1.0
291.854162 0.799740875320779

INCHIKEY: JLYXXMFPNIAWKQ-SHFUYGGZSA-N
NAME: alpha-1,2,3,4,5,6-Hexachlorocyclohexane
RETENTION_INDEX: None
RETENTION_TIME: None
NUM PEAKS: 5
108.961179 0.386493412818708
219.919408 0.4876667588909932
287.860062 0.5197902919172391
289.857112 1.0
291.854162 0.799740875320779

INCHIKEY: PQRRSJBLKOPVJV-UHFFFAOYSA-N
NAME: alpha-1,2-Dibromo-4-(1,2-dibromoethyl)cyclohexane
RETENTION_INDEX: None
RETENTION_TIME: None
NUM PEAKS: 5
107.086075 0.4433496009570049
108.0939 0.951856441981195
265.93056 0.5117068275371224
267.92852 1.0
269.92648 0.476760369059566

INCHIKEY: LHMRXAIRPKSGDE-UHFFFAOYSA-N
NAME: 1,2-Benzanthraquinone
RETENTION_INDEX: None
RETENTION_TIME: None
NUM PEAKS: 5
104.026214 0.12425708880770946
154.041864 0.18397040001292736
230.073164 0.3429458923806505
258.068078 1.0
259.071432 0.19844786352000102

INCHIKEY: MWPLVEDNUUSJAV-UHFFFAOYSA-N
NAME: Anthracene
RETENTION_INDEX: None
RETENTION_TIME: None
NUM PEAKS: 5
75.023475 0.1348285108346768
87.023475 0.172608400960501
98.01565 0.09442435935841348
178.07825 1.0
179.081604 0.15559549741326786

INCHIKEY: FNELVJVBIYMIMC-UHFFFAOYSA-N
NAME: Ethiprole
RETENTION_INDEX: None
RETENTION_TIME: None
NUM PEAKS: 5
366.943494 0.22714874637414556
368.940544 0.1444351614392225
376.984216 0.17038761994955173
395.982619 0.30334688613292043
397.979669 0.1941852499957654

INCHIKEY: HBPDKDSFLXWOAE-UHFFFAOYSA-N
NAME: Tebuthiuron
RETENTION_INDEX: None
RETENTION_TIME: None
NUM PEAKS: 5
170.075193 0.43676980812876776
171.083018 0.21936305758818325
213.081006 0.2020264027644635
227.096656 0.10801314854936131
228.104481 0.5240498924815934

INCHIKEY: HZRSNVGNWUDEFX-UHFFFAOYSA-N
NAME: Pyraclostrobin
RETENTION_INDEX: None
RETENTION_TIME: None
NUM PEAKS: 5
104.050024 1.0
111.000152 0.49137493728738285
135.068413 0.4066281252763101
193.016864 0.6491132004210651
387.09858 0.6098215801238401

INCHIKEY: IYAZLDLPUNDVAG-UHFFFAOYSA-N
NAME: Octrizole
RETENTION_INDEX: None
RETENTION_TIME: None
NUM PEAKS: 5
105.045273 0.65728265183785
133.065339 0.2448004955054058
252.113686 0.6497109000629087
323.199761 1.0
324.203115 0.21403976479333575

INCHIKEY: MCPKSFINULVDNX-UHFFFAOYSA-N
NAME: Drometrizole
RETENTION_INDEX: None
RETENTION_TIME: None
NUM PEAKS: 5
105.045273 0.310592055422031
107.049689 0.34428620025581064
121.052763 0.4495302420522739
224.082386 0.3034701184751295
225.090211 1.0

INCHIKEY: MLKCGVHIFJBRCD-UHFFFAOYSA-N
NAME: Carfentrazone-ethyl
RETENTION_INDEX: None
RETENTION_TIME: None
NUM PEAKS: 5
141.985979 0.1371970840650841
156.001629 0.085621100550621
338.007474 0.0884067261641269
411.036427 0.4061336584453865
413.033477 0.2616747841563405

INCHIKEY: OCWYEMOEOGEQAN-UHFFFAOYSA-N
NAME: Bumetrizole
RETENTION_INDEX: None
RETENTION_TIME: None
NUM PEAKS: 5
139.0063 0.22869352154597525
147.080989 0.15043233876238973
315.113838 1.0
316.117192 0.18255401923398323
317.110888 0.320283796733354

INCHIKEY: OORLZFUTLGXMEF-UHFFFAOYSA-N
NAME: Sulfentrazone
RETENTION_INDEX: None
RETENTION_TIME: None
NUM PEAKS: 5
200.962241 0.10624258475064083
306.996495 1.0
307.999849 0.10632353244703881
308.993545 0.6378625052010115
385.981869 0.14495282664648462

INCHIKEY: UWSMKYBKUPAEJQ-UHFFFAOYSA-N
NAME: 2,4-Di-tert-butyl-6-(5-chloro-2H-benzotriazol-2-yl)phenol
RETENTION_INDEX: None
RETENTION_TIME: None
NUM PEAKS: 5
139.0063 0.45635040982118746
342.137313 0.24625444322733855
357.160788 1.0
358.164142 0.213935993151511
359.157838 0.32488425456025766

INCHIKEY: YXKMMRDKEKCERS-UHFFFAOYSA-N
NAME: Cyazofamid
RETENTION_INDEX: None
RETENTION_TIME: None
NUM PEAKS: 5
108.011923 0.05531959503608691
155.060923 0.05450291210024783
216.032849 1.0
217.036203 0.12180410249659275
218.029899 0.3168587204122026

INCHIKEY: ZOCSXAVNDGMNBV-UHFFFAOYSA-N
NAME: Fipronil
RETENTION_INDEX: None
RETENTION_TIME: None
NUM PEAKS: 5
347.945091 0.20366363025920461
366.943494 1.0
368.940544 0.6510350735690544
435.938703 0.46550881642911973
437.935753 0.2970156407985831

INCHIKEY: AHJKRLASYNVKDZ-UHFFFAOYSA-N
NAME: 4,4'-Dichlorodiphenyldichloroethane
RETENTION_INDEX: None
RETENTION_TIME: None
NUM PEAKS: 5
111.000152 0.6811931369698396
235.008129 1.0
237.005179 0.6492673009360161
317.953658 0.5582093608160917
319.950708 0.7217300461634408

INCHIKEY: ALDJIKXAHSDLLB-UHFFFAOYSA-N
NAME: 2,2',3,5'-Tetrachlorobiphenyl
RETENTION_INDEX: None
RETENTION_TIME: None
NUM PEAKS: 5
144.961179 0.3254952787347601
254.953506 0.247069463487175
289.922358 0.7724611730376778
291.919408 1.0
293.916458 0.4739272500704606

INCHIKEY: AMJYFQPBRAAINT-UHFFFAOYSA-N
NAME: 2,2',3,4',5,5'-Hexachloro-4-methoxybiphenyl
RETENTION_INDEX: None
RETENTION_TIME: None
NUM PEAKS: 5
354.883174 0.2567359597997364
387.854976 0.5208226743594901
389.852026 1.0
391.849076 0.8046514767358857
393.846126 0.3495002697541834

INCHIKEY: AMRQXHFXNZFDCH-UHFFFAOYSA-N
NAME: Carbetamide
RETENTION_INDEX: None
RETENTION_TIME: None
NUM PEAKS: 5
77.039125 0.4032519783224357
92.050024 1.0
100.076238 0.3800596575123669
120.044938 0.400477729599989
236.11609 0.5938872867640737

INCHIKEY: ARXHIJMGSIYYRZ-UHFFFAOYSA-N
NAME: 2,3,3',4',6-Pentachlorobiphenyl
RETENTION_INDEX: None
RETENTION_TIME: None
NUM PEAKS: 5
288.914533 0.2592365179858759
290.911583 0.3358577979901185
323.883385 0.6163536503955703
325.880435 1.0
327.877485 0.635306146866448

INCHIKEY: BCTQJXQXJVLSIG-UHFFFAOYSA-N
NAME: Mepronil
RETENTION_INDEX: None
RETENTION_TIME: None
NUM PEAKS: 5
76.0313 0.10996769096834975
91.054775 0.26477180657513566
118.041864 0.12946186298940432
119.049689 1.0
269.141577 0.561941712390152

INCHIKEY: BIXZHMJUSMUDOQ-UHFFFAOYSA-N
NAME: 2,6-Dichloro-4-nitroaniline
RETENTION_INDEX: None
RETENTION_TIME: None
NUM PEAKS: 5
125.003226 0.2490844940932132
159.972078 0.6622160684444139
161.969128 0.4299109944317532
205.96498 1.0
207.96203 0.633289556227512

INCHIKEY: BQENMISTWGTJIJ-UHFFFAOYSA-N
NAME: 2,3,3',4,5-Pentachlorobiphenyl
RETENTION_INDEX: None
RETENTION_TIME: None
NUM PEAKS: 5
288.914533 0.2167626491917618
290.911583 0.28083013384717714
323.883385 0.6163536503955703
325.880435 1.0
327.877485 0.635306146866448

INCHIKEY: BQYJATMQXGBDHF-UHFFFAOYSA-N
NAME: Difenoconazole
RETENTION_INDEX: None
RETENTION_TIME: None
NUM PEAKS: 5
82.040522 0.9199734490644754
111.000152 1.0
236.987393 0.7830567112526333
323.024171 0.7390744197142465
405.064693 0.7971822939491017

INCHIKEY: BZMIHNKNQJJVRO-UHFFFAOYSA-N
NAME: Benzoximate
RETENTION_INDEX: None
RETENTION_TIME: None
NUM PEAKS: 5
77.039125 0.242275683725397
105.034039 1.0
106.037393 0.07530204908600395
363.087346 0.17487436100669418
365.084396 0.055960479649635325

INCHIKEY: BZTYNSQSZHARAZ-UHFFFAOYSA-N
NAME: 2,4,4'-Trichlorobiphenyl
RETENTION_INDEX: None
RETENTION_TIME: None
NUM PEAKS: 5
111.000152 0.18659171745489478
220.992479 0.2655091973722976
255.961331 1.0
257.958381 0.9717051124840215
259.955431 0.3011465289517408

INCHIKEY: CAYGQBVSOZLICD-UHFFFAOYSA-N
NAME: Hexabromobenzene
RETENTION_INDEX: None
RETENTION_TIME: None
NUM PEAKS: 5
231.83462 0.7387184738039767
391.66924 0.6937057049412929
549.5059 0.7813725746635136
551.50386 1.0
553.50182 0.7410338904728274

INCHIKEY: CEOCDNVZRAIOQZ-UHFFFAOYSA-N
NAME: Pentachlorobenzene
RETENTION_INDEX: None
RETENTION_TIME: None
NUM PEAKS: 5
177.914381 0.29730790880328334
214.880283 0.3169486490017371
247.852085 0.6228084283161536
249.849135 1.0
251.846185 0.6446839581179172

INCHIKEY: CHIFOSRWCNZCFN-UHFFFAOYSA-N
NAME: Pendimethalin
RETENTION_INDEX: None
RETENTION_TIME: None
NUM PEAKS: 5
71.086075 0.24600964142935078
78.034374 0.08034416168234487
252.098428 0.11273371452048267
281.137553 0.5711766531441292
282.140907 0.08192379012342992

INCHIKEY: CIEXPHRYOLIQQD-UHFFFAOYSA-N
NAME: Furalaxyl
RETENTION_INDEX: None
RETENTION_TIME: None
NUM PEAKS: 5
95.013303 1.0
105.070425 0.15463227162336513
147.104799 0.10442721587889942
214.086802 0.12256946427408533
301.131405 0.3842410763852752

INCHIKEY: CIFWZNRJIBNXRE-UHFFFAOYSA-N
NAME: Mepanipyrim
RETENTION_INDEX: None
RETENTION_TIME: None
NUM PEAKS: 5
77.039125 0.3577842826584314
92.050024 0.2956285545682649
118.053098 0.20929231552746402
222.103122 0.46970994571418934
223.110947 1.0

INCHIKEY: CKAPSXZOOQJIBF-UHFFFAOYSA-N
NAME: Hexachlorobenzene
RETENTION_INDEX: None
RETENTION_TIME: None
NUM PEAKS: 5
117.937704 0.439989112666539
213.872458 0.3994469485762787
281.813112 0.5286756093073174
283.810162 1.0
285.807212 0.8113990829701501

INCHIKEY: CKUBKYSLNCKBOI-UHFFFAOYSA-N
NAME: 2,3',4,6-Tetrachlorobiphenyl
RETENTION_INDEX: None
RETENTION_TIME: None
NUM PEAKS: 5
254.953506 0.18428974198992548
256.950556 0.17743056114640343
289.922358 0.7724611730376778
291.919408 1.0
293.916458 0.4739272500704606

INCHIKEY: CLSVJBIHYWPGQY-UHFFFAOYSA-N
NAME: Spirotetramat
RETENTION_INDEX: None
RETENTION_TIME: None
NUM PEAKS: 5
105.070425 0.14828710860078054
300.159966 0.1082648180239071
372.181094 1.0
373.184448 0.22652949942532669
373.188919 0.11249133940781299

INCHIKEY: CVUGPAFCQJIYDT-UHFFFAOYSA-N
NAME: 2,4'-Dichlorodiphenyltrichloroethane
RETENTION_INDEX: None
RETENTION_TIME: None
NUM PEAKS: 5
111.000152 0.44394884314465766
235.008129 1.0
237.005179 0.6492673009360161
316.945833 0.5544816512685182
318.942883 0.7090067254635851

INCHIKEY: DCMURXAZTZQAFB-UHFFFAOYSA-N
NAME: 2,2',5-Trichlorobiphenyl
RETENTION_INDEX: None
RETENTION_TIME: None
NUM PEAKS: 5
220.992479 0.5194753067777542
222.989529 0.33139649423694706
255.961331 1.0
257.958381 0.9717051124840215
259.955431 0.3011465289517408

INCHIKEY: DDVNRFNDOPPVQJ-HQJQHLMTSA-N
NAME: Transfluthrin
RETENTION_INDEX: None
RETENTION_TIME: None
NUM PEAKS: 5
163.008129 1.0
163.017087 0.37499940570630613
165.005179 0.6415265794161826
335.046192 0.2126515596859244
370.015044 0.31753132437807036

INCHIKEY: DIRFUJHNVNOBMY-UHFFFAOYSA-N
NAME: Fenobucarb
RETENTION_INDEX: None
RETENTION_TIME: None
NUM PEAKS: 5
133.101725 0.15867263789645591
149.096639 0.5378792712377015
150.104464 0.07455054211202268
178.086802 0.10876335163239881
207.125927 0.4350517826391998

INCHIKEY: DTAPQAJKAFRNJB-UHFFFAOYSA-N
NAME: Promecarb
RETENTION_INDEX: None
RETENTION_TIME: None
NUM PEAKS: 5
133.101725 0.2501146556458367
149.096639 0.4598565429481018
192.102452 0.12744328724319776
206.118102 0.19251991253579942
207.125927 0.49042229239708024

INCHIKEY: DTDSAWVUFPGDMX-UHFFFAOYSA-N
NAME: Spirodiclofen
RETENTION_INDEX: None
RETENTION_TIME: None
NUM PEAKS: 5
99.080989 1.0
100.084343 0.06515222946652471
144.961179 0.01295076266183346
184.956093 0.011502698256584126
410.10516 0.016794878276644835

INCHIKEY: DWFZBUWUXWZWKD-UHFFFAOYSA-N
NAME: Pyridaben
RETENTION_INDEX: None
RETENTION_TIME: None
NUM PEAKS: 5
90.04695 0.13692093717009812
131.086075 0.16886716029999682
132.0939 0.5017094646768725
147.117375 0.32303100049391253
364.13761 0.29817538329655385

INCHIKEY: FIAXCDIQXHJNIX-UHFFFAOYSA-N
NAME: 2,3,4,5,6-Pentabromoethylbenzene
RETENTION_INDEX: None
RETENTION_TIME: None
NUM PEAKS: 5
339.792075 0.6553961928241514
341.790035 0.6459739303669391
420.708365 0.7745341558478668
499.626695 1.0
501.624655 0.9670975761532499

INCHIKEY: FQKUGOMFVDPBIZ-UHFFFAOYSA-N
NAME: Flusilazole
RETENTION_INDEX: None
RETENTION_TIME: None
NUM PEAKS: 5
95.029703 0.8048361280526519
123.006629 0.3566459513648938
220.070626 0.5927874804402603
233.059807 0.4662562027493141
315.100329 1.0

INCHIKEY: GYSSRZJIHXQEHQ-UHFFFAOYSA-N
NAME: Carboxin
RETENTION_INDEX: None
RETENTION_TIME: None
NUM PEAKS: 5
77.039125 0.2859008216876345
92.050024 0.7892722422695997
115.02176 0.14573133023512364
143.016674 1.0
235.066698 0.9088430588921251

INCHIKEY: HAZQOLYHFUUJJN-UHFFFAOYSA-N
NAME: 2,3,3',4',5',6-Hexachlorobiphenyl
RETENTION_INDEX: None
RETENTION_TIME: None
NUM PEAKS: 5
324.87261 0.3103442694143797
357.844412 0.5134915543177115
359.841462 1.0
361.838512 0.8024360094708469
363.835562 0.3335415323103436

INCHIKEY: HCWZEPKLWVAEOV-UHFFFAOYSA-N
NAME: 2,2',5,5'-Tetrachlorobiphenyl
RETENTION_INDEX: None
RETENTION_TIME: None
NUM PEAKS: 5
254.953506 0.2908887912644594
256.950556 0.2800620420211642
289.922358 0.7724611730376778
291.919408 1.0
293.916458 0.4739272500704606

INCHIKEY: HDULUCZRGGWTMZ-UHFFFAOYSA-N
NAME: 2,3',5',6-Tetrachlorobiphenyl
RETENTION_INDEX: None
RETENTION_TIME: None
NUM PEAKS: 5
254.953506 0.3975410392530272
256.950556 0.38274474157788396
289.922358 0.7724611730376778
291.919408 1.0
293.916458 0.4739272500704606

INCHIKEY: HEZNVIYQEUHLNI-UHFFFAOYSA-N
NAME: Ethiofencarb
RETENTION_INDEX: None
RETENTION_TIME: None
NUM PEAKS: 5
75.026846 0.15784502643684575
106.041864 0.23555717980509472
164.071152 0.38942670935510454
167.05306 0.31567975338655196
225.082348 0.5607338917405601

INCHIKEY: HHXNVASVVVNNDG-UHFFFAOYSA-N
NAME: 2,2',3,3',4,5',6,6'-Octachlorobiphenyl
RETENTION_INDEX: None
RETENTION_TIME: None
NUM PEAKS: 5
425.766466 0.3407396516900852
427.763516 0.8805095038712605
429.760566 1.0
431.757616 0.6231453625111514
433.754666 0.25852208999753246

INCHIKEY: HJJVPARKXDDIQD-UHFFFAOYSA-N
NAME: Bromuconazole
RETENTION_INDEX: None
RETENTION_TIME: None
NUM PEAKS: 5
82.040522 0.8050214751092984
292.913548 0.6270229730042126
296.03574 0.9158635645691169
374.95407 0.8837755514417966
376.95203 0.8593195693682486

INCHIKEY: HJUFTIJOISQSKQ-UHFFFAOYSA-N
NAME: Fenoxycarb
RETENTION_INDEX: None
RETENTION_TIME: None
NUM PEAKS: 5
76.0313 0.21057064859590782
77.039125 1.0
92.026214 0.21149541994137006
169.065339 0.247062548908672
301.131405 0.9395030150168339

INCHIKEY: HSMVPDGQOIQYSR-UHFFFAOYSA-N
NAME: Triflumizole
RETENTION_INDEX: None
RETENTION_TIME: None
NUM PEAKS: 5
73.065339 0.17808684841799582
178.987536 0.24203524357394118
278.055949 0.3240546851746769
345.085572 0.7480166664149022
347.082622 0.23952814436523834

INCHIKEY: HVDXCGSGEQKWGB-UHFFFAOYSA-N
NAME: 2-Ethylhexyl 2,3,4,5-Tetrabromobenzoate
RETENTION_INDEX: None
RETENTION_TIME: None
NUM PEAKS: 5
101.002739 0.10979073071262647
420.671979 0.06963784205875298
547.801958 0.24422340103635315
549.799918 0.3575450637817482
551.797878 0.23308331365182763

INCHIKEY: HZJKXKUJVSEEFU-UHFFFAOYSA-N
NAME: Myclobutanil
RETENTION_INDEX: None
RETENTION_TIME: None
NUM PEAKS: 5
82.040522 0.8798673870774658
111.000152 0.33636641860319044
163.018876 0.32166699587198605
206.073651 0.368165804049411
288.114173 0.8895576734381047

INCHIKEY: IAKOZHOLGAGEJT-UHFFFAOYSA-N
NAME: Methoxychlor
RETENTION_INDEX: None
RETENTION_TIME: None
NUM PEAKS: 5
92.026214 0.34680045045066377
107.049689 0.37668166581788426
227.107203 1.0
344.013759 0.22974302600137567
346.010809 0.21836837187044422

INCHIKEY: IANUJLZYFUDJIH-UHFFFAOYSA-N
NAME: Flufenacet
RETENTION_INDEX: None
RETENTION_TIME: None
NUM PEAKS: 5
95.029703 0.24327055637874617
136.056252 0.10065524928494392
137.064077 0.1270280936131448
152.087552 0.16888324013505174
363.066458 0.23826920952257374

INCHIKEY: IBSNKSODLGJUMQ-SDNWHVSQSA-N
NAME: Picoxystrobin
RETENTION_INDEX: None
RETENTION_TIME: None
NUM PEAKS: 5
130.041864 0.3106489767112141
131.049689 0.5437467975259952
146.073164 0.2810347082591274
205.086467 0.43882729823454286
367.103139 1.0

INCHIKEY: IHIDFKLAWYPTKB-UHFFFAOYSA-N
NAME: 2,4,6-Trichlorobiphenyl
RETENTION_INDEX: None
RETENTION_TIME: None
NUM PEAKS: 5
220.992479 0.33751184654933214
222.989529 0.21531387777348138
255.961331 1.0
257.958381 0.9717051124840215
259.955431 0.3011465289517408

INCHIKEY: IISBACLAFKSPIT-UHFFFAOYSA-N
NAME: Bisphenol A
RETENTION_INDEX: None
RETENTION_TIME: None
NUM PEAKS: 5
93.034039 0.397769643927077
135.080989 1.0
213.091553 0.4892506854185859
227.107203 0.1775614713671683
228.115028 0.9112834813060304

INCHIKEY: ILPSCQCLBHQUEM-UHFFFAOYSA-N
NAME: 2,2',3,4,4',5',6-Heptabromodiphenyl ether
RETENTION_INDEX: None
RETENTION_TIME: None
NUM PEAKS: 5
561.605959 0.32669383545366243
563.603919 0.3223054929090712
640.524289 0.7566506094875703
642.522249 1.0
644.520209 0.7166012227226343

INCHIKEY: IMIDOCRTMDIQIJ-UHFFFAOYSA-N
NAME: Aminocarb
RETENTION_INDEX: None
RETENTION_TIME: None
NUM PEAKS: 5
122.096974 0.21094792645801685
134.096974 0.1821842558407791
150.091888 0.7581550515840282
207.113351 0.23564270125582065
208.121176 0.6093897374179841

INCHIKEY: ISAVYTVYFVQUDY-UHFFFAOYSA-N
NAME: 4-tert-Octylphenol
RETENTION_INDEX: None
RETENTION_TIME: None
NUM PEAKS: 5
93.034039 0.29363768185949096
120.057514 0.20245395923841047
134.073164 0.16227693643846736
135.080989 1.0
206.167064 0.49446280954394356

INCHIKEY: IXSZQYVWNJNRAL-UHFFFAOYSA-N
NAME: Etoxazole
RETENTION_INDEX: None
RETENTION_TIME: None
NUM PEAKS: 5
141.015195 0.328160425024415
182.041744 0.24597363522057292
344.146208 0.14523728527798052
359.169683 1.0
360.173037 0.2256008093143679

INCHIKEY: JEDYYFXHPAIBGR-UHFFFAOYSA-N
NAME: Butafenacil
RETENTION_INDEX: None
RETENTION_TIME: None
NUM PEAKS: 5
151.990315 0.22615002221812108
179.985229 1.0
181.982279 0.3190965792870791
331.009726 0.19786121734164022
474.080543 0.2198638013569626

INCHIKEY: JFIMDKGRGPNPRQ-UHFFFAOYSA-N
NAME: 2,2',3,3',4,4',5,5',6-Nonachlorobiphenyl
RETENTION_INDEX: None
RETENTION_TIME: None
NUM PEAKS: 5
459.727493 0.26570336615411594
461.724543 0.7778692823334391
463.721593 1.0
465.718643 0.742606845296897
467.715693 0.35689151091214133

INCHIKEY: JHJMZCXLJXRCHK-UHFFFAOYSA-N
NAME: 2,3,3',4,5,6-Hexachlorobiphenyl
RETENTION_INDEX: None
RETENTION_TIME: None
NUM PEAKS: 5
217.969004 0.3093642675840446
357.844412 0.5134915543177115
359.841462 1.0
361.838512 0.8024360094708469
363.835562 0.3335415323103436

INCHIKEY: JWBOIMRXGHLCPP-UHFFFAOYSA-N
NAME: 2,4'-Dichlorodiphenyldichloroethane
RETENTION_INDEX: None
RETENTION_TIME: None
NUM PEAKS: 5
111.000152 0.804290566730391
235.008129 0.8958425093839688
282.984806 0.5896504857651527
317.953658 0.7734323432749
319.950708 1.0

INCHIKEY: JWUCHKBSVLQQCO-UHFFFAOYSA-N
NAME: Flutriafol
RETENTION_INDEX: None
RETENTION_TIME: None
NUM PEAKS: 5
95.029703 0.27128239300994145
138.048092 0.1903488010276949
206.072964 0.33060189531954676
219.062145 1.0
301.102667 0.4592106093690742

INCHIKEY: JXVIIQLNUPXOII-UHFFFAOYSA-N
NAME: Siduron
RETENTION_INDEX: None
RETENTION_TIME: None
NUM PEAKS: 5
77.039125 0.4850780282141935
92.050024 0.48916968843933945
93.057849 0.16539083756233508
97.101725 0.20899882617292603
232.157562 1.0

INCHIKEY: KKWHDMUCBWSKGL-UHFFFAOYSA-N
NAME: 2,3,4,5,6-Pentabromobenzyl alcohol
RETENTION_INDEX: None
RETENTION_TIME: None
NUM PEAKS: 5
420.689669 0.3130911833052304
422.687629 0.45444646116907284
499.607999 0.3031951590167771
501.605959 0.5957958885134103
503.603919 0.5790550328443579

INCHIKEY: KMYYWRRSXKVAQO-UHFFFAOYSA-N
NAME: 2,2',3,4',5,5',6-Heptachloro-4-methoxybiphenyl
RETENTION_INDEX: None
RETENTION_TIME: None
NUM PEAKS: 5
388.844201 0.3066443197577243
421.816003 0.4511875169831001
423.813053 1.0
425.810103 0.9759579554079022
427.807153 0.5161008202586306

INCHIKEY: KQBFUDNJKCZEDQ-UHFFFAOYSA-N
NAME: 2,2',3,4,4',5',6-Heptachlorobiphenyl
RETENTION_INDEX: None
RETENTION_TIME: None
NUM PEAKS: 5
323.864785 0.2046906098263893
391.805439 0.4412558668425987
393.802489 1.0
395.799539 0.9654070362524352
397.796589 0.5122176183418706

INCHIKEY: LAHWLEDBADHJGA-UHFFFAOYSA-N
NAME: 2,2',4,5,5'-Pentachlorobiphenyl
RETENTION_INDEX: None
RETENTION_TIME: None
NUM PEAKS: 5
290.911583 0.20436338851242733
323.883385 0.6163536503955703
325.880435 1.0
327.877485 0.635306146866448
329.874535 0.20110084517141238

INCHIKEY: LAXBNTIAOJWAOP-UHFFFAOYSA-N
NAME: 2-Chlorobiphenyl
RETENTION_INDEX: None
RETENTION_TIME: None
NUM PEAKS: 5
152.0626 0.11440424937185023
153.070425 0.34276200265874546
188.039277 1.0
189.042631 0.13234582658471689
190.036327 0.32400241950174624

INCHIKEY: LKJPSUCKSLORMF-UHFFFAOYSA-N
NAME: Monolinuron
RETENTION_INDEX: None
RETENTION_TIME: None
NUM PEAKS: 5
111.000152 0.6131443609334437
126.011051 1.0
128.008101 0.32037103590944144
154.005965 0.3063560238696614
214.050903 0.763402994883061

INCHIKEY: LLVVSBBXENOOQY-UHFFFAOYSA-N
NAME: Pentabromobenzene
RETENTION_INDEX: None
RETENTION_TIME: None
NUM PEAKS: 5
311.760775 0.8840070493679009
313.758735 0.8613133623640468
392.677065 0.9245390375988667
471.595395 1.0
473.593355 0.9686388148078174

INCHIKEY: LNJNFVJKDJYTEU-UHFFFAOYSA-N
NAME: Diethofencarb
RETENTION_INDEX: None
RETENTION_TIME: None
NUM PEAKS: 5
81.021463 0.04137290529319519
122.024202 0.03573227020482832
151.063327 0.04480936817322647
180.102452 0.0898525044081398
267.147055 0.23052346516417163

INCHIKEY: LQDARGUHUSPFNL-UHFFFAOYSA-N
NAME: Tetraconazole
RETENTION_INDEX: None
RETENTION_TIME: None
NUM PEAKS: 5
82.040522 0.6556239216293025
254.025176 0.6584447174162694
256.022226 0.42466792723474756
371.021527 1.0
373.018577 0.6388595090059417

INCHIKEY: MSHFRERJPWKJFX-UHFFFAOYSA-N
NAME: 4-Methoxybenzyl alcohol
RETENTION_INDEX: None
RETENTION_TIME: None
NUM PEAKS: 5
107.049689 0.2312728105680158
123.044603 0.165666711499158
137.060253 0.2011746168225434
138.068078 1.0
139.071432 0.08584763019652658

INCHIKEY: MVWHGTYKUMDIHL-UHFFFAOYSA-N
NAME: 2,2',4,4',5,5'-Hexachlorobiphenyl
RETENTION_INDEX: None
RETENTION_TIME: None
NUM PEAKS: 5
107.976677 0.2038150433934338
357.844412 0.5134915543177115
359.841462 1.0
361.838512 0.8024360094708469
363.835562 0.3335415323103436

INCHIKEY: MXVAYAXIPRGORY-UHFFFAOYSA-N
NAME: 3,3',4,5,5'-Pentachlorobiphenyl
RETENTION_INDEX: None
RETENTION_TIME: None
NUM PEAKS: 5
288.914533 0.2634676234409659
290.911583 0.34133947075848964
323.883385 0.6163536503955703
325.880435 1.0
327.877485 0.635306146866448

INCHIKEY: NHDHVHZZCFYRSB-UHFFFAOYSA-N
NAME: Pyriproxyfen
RETENTION_INDEX: None
RETENTION_TIME: None
NUM PEAKS: 5
76.0313 0.21618129019307694
77.039125 1.0
78.034374 0.40982700539405714
185.060253 0.2279725532833949
321.136491 0.7003098618419815

INCHIKEY: NHOWDZOIZKMVAI-UHFFFAOYSA-N
NAME: Fenarimol
RETENTION_INDEX: None
RETENTION_TIME: None
NUM PEAKS: 5
219.032514 1.0
221.029564 0.3181968089549001
251.003043 0.43679147850124667
330.032666 0.5131382601328156
332.029716 0.32738615403482557

INCHIKEY: NLZUEZXRPGMBCV-UHFFFAOYSA-N
NAME: Butylated hydroxytoluene
RETENTION_INDEX: None
RETENTION_TIME: None
NUM PEAKS: 5
148.088814 0.15828950013720164
190.135764 0.1834585196334428
205.159239 0.4970696104070776
220.182714 1.0
221.186068 0.1612385113493207

INCHIKEY: NWUWYYSKZYIQAE-WMCAAGNKSA-N
NAME: Iprovalicarb
RETENTION_INDEX: None
RETENTION_TIME: None
NUM PEAKS: 5
91.054775 0.10176272713411941
117.070425 0.05678760634081361
118.07825 0.09600058245297859
119.086075 0.5203788598172834
320.20999 0.27849473073339875

INCHIKEY: OMFRMAHOUUJSGP-IRHGGOMRSA-N
NAME: Bifenthrin
RETENTION_INDEX: None
RETENTION_TIME: None
NUM PEAKS: 5
180.0939 0.1943457962206888
181.101725 1.0
182.105079 0.15154689784783215
197.034486 0.15186365006556743
422.126039 0.2920720656867626

INCHIKEY: ONCZDRURRATYFI-UHFFFAOYSA-N
NAME: Trifloxystrobin
RETENTION_INDEX: None
RETENTION_TIME: None
NUM PEAKS: 5
102.034374 0.41980532059443915
116.050024 0.9140493181702207
145.026509 0.5193712659219591
186.053058 0.40687860449299323
408.129688 1.0

INCHIKEY: OPKYDBFRKPQCBS-UHFFFAOYSA-N
NAME: 2,2',3,4,5'-Pentachlorobiphenyl
RETENTION_INDEX: None
RETENTION_TIME: None
NUM PEAKS: 5
288.914533 0.2614056569606848
290.911583 0.3386680588487124
323.883385 0.6163536503955703
325.880435 1.0
327.877485 0.635306146866448

INCHIKEY: OZHJEQVYCBTHJT-UHFFFAOYSA-N
NAME: 2,3,4,5,6-Pentabromotoluene
RETENTION_INDEX: None
RETENTION_TIME: None
NUM PEAKS: 5
406.692715 0.5643489278800794
483.613085 0.5192661755032152
485.611045 1.0
487.609005 0.9658323080295438
489.606965 0.46900359373763045

INCHIKEY: PITHIPNORFGJPI-UHFFFAOYSA-N
NAME: 2,3',4,4',5',6-Hexachlorobiphenyl
RETENTION_INDEX: None
RETENTION_TIME: None
NUM PEAKS: 5
324.87261 0.2886955040369968
357.844412 0.5134915543177115
359.841462 1.0
361.838512 0.8024360094708469
363.835562 0.3335415323103436

INCHIKEY: PPDBOQMNKNNODG-NTEUORMPSA-N
NAME: Triticonazole
RETENTION_INDEX: None
RETENTION_TIME: None
NUM PEAKS: 5
82.040522 0.3339994048429301
150.023627 0.3099352902261989
235.088966 0.9074530557809788
317.129488 1.0
319.126538 0.3242868599957561

INCHIKEY: PQKBPHSEKWERTG-UHFFFAOYSA-N
NAME: Fenoxaprop-ethyl
RETENTION_INDEX: None
RETENTION_TIME: None
NUM PEAKS: 5
75.023475 0.23739824777409038
76.0313 1.0
92.026214 0.3160097823976938
167.985229 0.22475030118615305
361.071696 0.5860394789547534

INCHIKEY: PTCGDEVVHUXTMP-UHFFFAOYSA-N
NAME: Flutolanil
RETENTION_INDEX: None
RETENTION_TIME: None
NUM PEAKS: 5
91.042199 0.10929834298071164
145.026509 0.11634911757526475
154.02302 0.12930145764224094
173.021423 0.6049526465676771
323.113311 0.5232712137211555

INCHIKEY: PXMNMQRDXWABCY-UHFFFAOYSA-N
NAME: Tebuconazole
RETENTION_INDEX: None
RETENTION_TIME: None
NUM PEAKS: 5
125.015802 0.6304151760331639
127.012852 0.1991736707567008
139.031452 0.20027787965201369
307.145138 0.6149304264822192
309.142188 0.19613045485678046

INCHIKEY: PYZHTHZEHQHHEN-UHFFFAOYSA-N
NAME: 2,2',3,4,5,5',6-Heptachlorobiphenyl
RETENTION_INDEX: None
RETENTION_TIME: None
NUM PEAKS: 5
358.833637 0.23930162045909775
391.805439 0.4412558668425987
393.802489 1.0
395.799539 0.9654070362524352
397.796589 0.5122176183418706

INCHIKEY: PZBPKYOVPCNPJY-UHFFFAOYSA-N
NAME: Enilconazole
RETENTION_INDEX: None
RETENTION_TIME: None
NUM PEAKS: 5
81.045273 0.422155796569825
171.984654 0.09399770198609594
215.003043 0.0954068734089516
296.048316 0.31818408576152035
298.045366 0.2036096507840332

INCHIKEY: QBSJMKIUCUGGNG-UHFFFAOYSA-N
NAME: Isoprocarb
RETENTION_INDEX: None
RETENTION_TIME: None
NUM PEAKS: 5
119.086075 0.23123594772822018
135.080989 0.719330208544276
178.086802 0.10461343225753646
192.102452 0.09791101544268976
193.110277 0.5500916372552124

INCHIKEY: QHTQREMOGMZHJV-UHFFFAOYSA-N
NAME: Thiobencarb
RETENTION_INDEX: None
RETENTION_TIME: None
NUM PEAKS: 5
100.076238 0.4553196230512604
125.015802 0.5424547823104587
127.012852 0.17464518796230066
156.987873 0.30621398697095875
257.064111 0.40008768751483426

INCHIKEY: QNBTYORWCCMPQP-UHFFFAOYSA-N
NAME: Dimethomorph
RETENTION_INDEX: None
RETENTION_TIME: None
NUM PEAKS: 5
86.060588 0.6684825197656932
301.063144 0.713057026905483
303.060194 0.2319572056140408
387.123732 1.0
389.120782 0.32480561576201483

INCHIKEY: QQQYTWIFVNKMRW-UHFFFAOYSA-N
NAME: Diflubenzuron
RETENTION_INDEX: None
RETENTION_TIME: None
NUM PEAKS: 5
111.000152 0.24935077399798813
126.011051 0.24889241474159146
141.015195 1.0
154.005965 0.2911654275838072
310.032059 0.5031814896497185

INCHIKEY: QXAITBQSYVNQDR-UHFFFAOYSA-N
NAME: Amitraz
RETENTION_INDEX: None
RETENTION_TIME: None
NUM PEAKS: 5
104.0626 0.31603968589643916
105.070425 0.9195310509707595
132.081324 0.9838936757221453
161.107873 0.21625382824471182
293.189197 1.0

INCHIKEY: RKLLTEAEZIJBAU-UHFFFAOYSA-N
NAME: 2,3',4,4'-Tetrachlorobiphenyl
RETENTION_INDEX: None
RETENTION_TIME: None
NUM PEAKS: 5
254.953506 0.29859094270201914
256.950556 0.2874775228658632
289.922358 0.7724611730376778
291.919408 1.0
293.916458 0.4739272500704606

INCHIKEY: RMOGWMIKYWRTKW-LSLKUGRBSA-N
NAME: Paclobutrazol
RETENTION_INDEX: None
RETENTION_TIME: None
NUM PEAKS: 5
72.057514 0.3095277069555073
87.080989 0.3211793197390744
125.015802 0.8214848032090452
127.012852 0.2608269674826943
293.129488 0.6018294376696603

INCHIKEY: RMPWIIKNWPVWNG-UHFFFAOYSA-N
NAME: 2,2',3,3',4,4',5-Heptachlorobiphenyl
RETENTION_INDEX: None
RETENTION_TIME: None
NUM PEAKS: 5
358.833637 0.24987852639288274
391.805439 0.4412558668425987
393.802489 1.0
395.799539 0.9654070362524352
397.796589 0.5122176183418706

INCHIKEY: RPUMZMSNLZHIGZ-UHFFFAOYSA-N
NAME: 2,2',3,4,4',5'-Hexachlorobiphenyl
RETENTION_INDEX: None
RETENTION_TIME: None
NUM PEAKS: 5
324.87261 0.23656710180661927
357.844412 0.5134915543177115
359.841462 1.0
361.838512 0.8024360094708469
363.835562 0.3335415323103436

INCHIKEY: RWCCWEUUXYIKHB-UHFFFAOYSA-N
NAME: Benzophenone
RETENTION_INDEX: None
RETENTION_TIME: None
NUM PEAKS: 5
76.0313 0.1130388901136862
77.039125 0.6615269156599666
105.034039 1.0
182.073164 0.688566286205843
183.076518 0.09892900599229487

INCHIKEY: RXKOKVQKECXYOT-UHFFFAOYSA-N
NAME: 2,3,5,6-Tetrabromo-p-xylene
RETENTION_INDEX: None
RETENTION_TIME: None
NUM PEAKS: 5
180.96528 0.7972642158353775
182.96324 0.7830390448587614
261.88157 0.9987808009937666
340.7999 0.7845915960475844
421.71619 1.0

INCHIKEY: RYAUSSKQMZRMAI-ALOPSCKCSA-N
NAME: Fenpropimorph
RETENTION_INDEX: None
RETENTION_TIME: None
NUM PEAKS: 5
70.065674 0.4188090592274406
128.107538 0.4133298376988281
131.086075 0.2807359583776316
132.0939 0.4828826856294317
303.256213 1.0

INCHIKEY: SAPGTCDSBGMXCD-UHFFFAOYSA-N
NAME: Nuarimol
RETENTION_INDEX: None
RETENTION_TIME: None
NUM PEAKS: 5
203.062065 0.9302505661393786
219.032514 0.707379400144038
235.032594 0.6163989476850865
314.062217 1.0
316.059267 0.3232248612863647

INCHIKEY: SCCDDNKJYDZXMM-UHFFFAOYSA-N
NAME: Dimethachlor
RETENTION_INDEX: None
RETENTION_TIME: None
NUM PEAKS: 5
105.070425 0.4288960194036385
133.089149 0.3172330438642861
178.123188 0.5271123762169138
255.102604 0.6893168727950809
257.099654 0.2220428466638085

INCHIKEY: SDKQRNRRDYRQKY-UHFFFAOYSA-N
NAME: Dioxacarb
RETENTION_INDEX: None
RETENTION_TIME: None
NUM PEAKS: 5
73.028953 0.576046281798382
149.060253 0.13771847218546132
165.055167 0.4355165557169611
166.062992 0.09160627062425128
223.084455 0.4743614918141045

INCHIKEY: SDQFDHOLCGWZPU-UHFFFAOYSA-N
NAME: Lilial
RETENTION_INDEX: None
RETENTION_TIME: None
NUM PEAKS: 5
132.0939 0.34929201185645214
147.117375 0.9845464444477008
175.148675 0.8103185153836401
189.127939 0.419142523281702
204.151414 1.0

INCHIKEY: SESFRYSPDFLNCH-UHFFFAOYSA-N
NAME: Benzyl benzoate
RETENTION_INDEX: None
RETENTION_TIME: None
NUM PEAKS: 5
77.039125 0.5672810909485997
91.054775 1.0
92.058129 0.07549531228020442
105.034039 0.5159951217832736
212.083728 0.46038607801562664

INCHIKEY: SOUGWDPPRBKJEX-UHFFFAOYSA-N
NAME: Zoxamide
RETENTION_INDEX: None
RETENTION_TIME: None
NUM PEAKS: 5
158.976829 0.27795951753649006
186.971743 1.0
188.968793 0.6429034579018752
335.024658 0.4067953535478102
337.021708 0.38771683132543777

INCHIKEY: SSTJUBQGYXNFFP-UHFFFAOYSA-N
NAME: 2,3,3',4',5,5',6-Heptachlorobiphenyl
RETENTION_INDEX: None
RETENTION_TIME: None
NUM PEAKS: 5
358.833637 0.30335785579767977
391.805439 0.4412558668425987
393.802489 1.0
395.799539 0.9654070362524352
397.796589 0.5122176183418706

INCHIKEY: STEPQTYSZVCJPV-UHFFFAOYSA-N
NAME: Metazachlor
RETENTION_INDEX: None
RETENTION_TIME: None
NUM PEAKS: 5
76.979416 0.20161661187110488
81.045273 1.0
133.089149 0.43302003918036613
200.118772 0.3137332995665075
277.098188 0.3504681126289272

INCHIKEY: STJLVHWMYQXCPB-UHFFFAOYSA-N
NAME: Propiconazole
RETENTION_INDEX: None
RETENTION_TIME: None
NUM PEAKS: 5
82.040522 1.0
144.961179 0.6027555170096481
172.956093 0.5188924872776897
259.029257 0.5489542156513468
341.069779 0.6720161758753753

INCHIKEY: STMIIPIFODONDC-UHFFFAOYSA-N
NAME: Hexaconazole
RETENTION_INDEX: None
RETENTION_TIME: None
NUM PEAKS: 5
82.040522 0.5209113617147384
83.048347 0.3989512318060978
231.034343 0.4962177101141795
313.074865 0.5287001586927117
315.071915 0.3415430592973916

INCHIKEY: SUOAMBOBSWRMNQ-UHFFFAOYSA-N
NAME: 2,2',3,4',5-Pentachlorobiphenyl
RETENTION_INDEX: None
RETENTION_TIME: None
NUM PEAKS: 5
288.914533 0.2472281286742333
290.911583 0.32030014730513245
323.883385 0.6163536503955703
325.880435 1.0
327.877485 0.635306146866448

INCHIKEY: SXZSFWHOSHAKMN-UHFFFAOYSA-N
NAME: 2,3',4,4',5-Pentachlorobiphenyl
RETENTION_INDEX: None
RETENTION_TIME: None
NUM PEAKS: 5
111.000152 0.20470605561430727
323.883385 0.6163536503955703
325.880435 1.0
327.877485 0.635306146866448
329.874535 0.20110084517141238

INCHIKEY: TXGGVMUGQFGMGI-UHFFFAOYSA-N
NAME: 2,2',3',4,4',5-Hexachloro-3-methoxybiphenyl
RETENTION_INDEX: None
RETENTION_TIME: None
NUM PEAKS: 5
354.883174 0.25072865062198535
387.854976 0.5208226743594901
389.852026 1.0
391.849076 0.8046514767358857
393.846126 0.3495002697541834

INCHIKEY: UCLKLGIYGBLTSM-UHFFFAOYSA-N
NAME: 2,2',3,4,5,5'-Hexachlorobiphenyl
RETENTION_INDEX: None
RETENTION_TIME: None
NUM PEAKS: 5
324.87261 0.2708460522319865
357.844412 0.5134915543177115
359.841462 1.0
361.838512 0.8024360094708469
363.835562 0.3335415323103436

INCHIKEY: UCNVFOCBFJOQAL-UHFFFAOYSA-N
NAME: 4,4'-Dichlorodiphenyldichloroethylene
RETENTION_INDEX: None
RETENTION_TIME: None
NUM PEAKS: 5
111.000152 0.7883393097147591
246.000304 0.5270486131497909
315.938008 0.7681150854543045
317.935058 1.0
319.932108 0.4753062563836243

INCHIKEY: UDMZPLROONOSEF-UHFFFAOYSA-N
NAME: 2,2',3,4',5,5',6-Heptachlorobiphenyl
RETENTION_INDEX: None
RETENTION_TIME: None
NUM PEAKS: 5
358.833637 0.21233806077553846
391.805439 0.4412558668425987
393.802489 1.0
395.799539 0.9654070362524352
397.796589 0.5122176183418706

INCHIKEY: UFNOUKDBUJZYDE-UHFFFAOYSA-N
NAME: Cyproconazole
RETENTION_INDEX: None
RETENTION_TIME: None
NUM PEAKS: 5
111.000152 0.3236579031575185
154.018541 0.2801885253537509
209.073316 0.24343430779978376
222.043413 0.3694004163325763
291.113838 0.7079365993807964

INCHIKEY: UHCLFIWDCYOTOL-UHFFFAOYSA-N
NAME: 2,2',3,5,5',6-Hexachlorobiphenyl
RETENTION_INDEX: None
RETENTION_TIME: None
NUM PEAKS: 5
324.87261 0.25115815307720296
357.844412 0.5134915543177115
359.841462 1.0
361.838512 0.8024360094708469
363.835562 0.3335415323103436

INCHIKEY: UOAMTSKGCBMZTC-UHFFFAOYSA-N
NAME: Dicofol
RETENTION_INDEX: None
RETENTION_TIME: None
NUM PEAKS: 5
111.000152 0.2339948943853775
251.003043 1.0
253.000093 0.6456320569228323
334.937797 0.17871805500034676
369.906649 0.17739346653625299

INCHIKEY: UQMRAFJOBWOFNS-UHFFFAOYSA-N
NAME: 2,4-D butyl ester
RETENTION_INDEX: None
RETENTION_TIME: None
NUM PEAKS: 5
144.961179 0.32231029859350696
174.971743 1.0
176.968793 0.6392712487805308
276.031996 0.9116365418317711
278.029046 0.5832806309115071

INCHIKEY: URDNHJIVMYZFRT-UHFFFAOYSA-N
NAME: Diclobutrazol
RETENTION_INDEX: None
RETENTION_TIME: None
NUM PEAKS: 5
87.080989 0.4211314361307222
158.976829 0.47663869196972203
160.973879 0.3033838146425448
327.090515 0.5027306576178978
329.087565 0.3230869490572641

INCHIKEY: UWVQIROCRJWDKL-UHFFFAOYSA-N
NAME: Oxadixyl
RETENTION_INDEX: None
RETENTION_TIME: None
NUM PEAKS: 5
73.028953 0.13328136406301325
105.070425 0.14253821908127773
133.076573 0.06491591708999593
205.097701 0.06843443467531737
278.126654 0.23405555161391242

INCHIKEY: VAHKBZSAUKPEOV-UHFFFAOYSA-N
NAME: 2,4',5-Trichlorobiphenyl
RETENTION_INDEX: None
RETENTION_TIME: None
NUM PEAKS: 5
220.992479 0.42800679488009336
222.989529 0.27304464616936647
255.961331 1.0
257.958381 0.9717051124840215
259.955431 0.3011465289517408

INCHIKEY: VBCVPMMZEGZULK-NRFANRHFSA-N
NAME: Indoxacarb
RETENTION_INDEX: None
RETENTION_TIME: None
NUM PEAKS: 5
150.011051 0.34211224597017215
178.005965 0.4691388201858271
206.024689 1.0
208.021739 0.3196421675349824
527.070706 0.4835925663049514

INCHIKEY: VDLGAVXLJYLFDH-UHFFFAOYSA-N
NAME: Fenhexamid
RETENTION_INDEX: None
RETENTION_TIME: None
NUM PEAKS: 5
97.101725 0.46435256401416175
125.096639 0.2515311562327748
175.966992 0.2768067678979332
301.063631 1.0
303.060681 0.6344346166842241

INCHIKEY: VGPIBGGRCVEHQZ-UHFFFAOYSA-N
NAME: Bitertanol
RETENTION_INDEX: None
RETENTION_TIME: None
NUM PEAKS: 5
87.080989 0.2224769360341151
141.070425 0.1347472005430174
153.070425 0.3361652166396365
169.065339 0.29457584388101654
337.179025 0.47417204839278765

INCHIKEY: VHLKTXFWDRXILV-UHFFFAOYSA-N
NAME: Bifenazate
RETENTION_INDEX: None
RETENTION_TIME: None
NUM PEAKS: 5
168.081324 0.13887760595049548
182.060588 0.13830081512394302
198.091888 0.14565901241031357
213.102787 0.4013155613591707
300.14739 0.5034613804357114

INCHIKEY: VXPLXMJHHKHSOA-UHFFFAOYSA-N
NAME: Propham
RETENTION_INDEX: None
RETENTION_TIME: None
NUM PEAKS: 5
77.039125 0.07286648054051245
92.050024 0.16447363375788215
120.044938 0.0733078462754063
137.047677 0.029772537350078274
179.094627 0.17104739567325777

INCHIKEY: WBHQEUPUMONIKF-UHFFFAOYSA-N
NAME: 2,2',3,4,4',5,5'-Heptachlorobiphenyl
RETENTION_INDEX: None
RETENTION_TIME: None
NUM PEAKS: 5
323.864785 0.17181379439625347
391.805439 0.4412558668425987
393.802489 1.0
395.799539 0.9654070362524352
397.796589 0.5122176183418706

INCHIKEY: WFDXOXNFNRHQEC-GHRIWEEISA-N
NAME: Azoxystrobin
RETENTION_INDEX: None
RETENTION_TIME: None
NUM PEAKS: 5
102.034374 0.5360775650597227
116.026214 0.19635439254961434
117.034039 0.2584296811869776
403.116817 1.0
404.120171 0.23874154545105847

INCHIKEY: WKBPZYKAUNRMKP-UHFFFAOYSA-N
NAME: Penconazole
RETENTION_INDEX: None
RETENTION_TIME: None
NUM PEAKS: 5
82.040522 0.46399120047473663
201.023779 0.5152411977135497
215.039429 0.4125645111370862
283.064301 1.0
285.061351 0.6399091211181223

INCHIKEY: WLFDQEVORAMCIM-UHFFFAOYSA-N
NAME: Metobromuron
RETENTION_INDEX: None
RETENTION_TIME: None
NUM PEAKS: 5
154.94963 0.4830959277306512
169.960529 0.9574157251844819
171.958489 0.9255932842218315
258.000381 1.0
259.998341 0.9646919491911682

INCHIKEY: WMXWTOJJASZOCL-UHFFFAOYSA-N
NAME: 2,3,4,5-Tetrabromo-6-chlorotoluene
RETENTION_INDEX: None
RETENTION_TIME: None
NUM PEAKS: 5
360.745277 0.6396784024890203
362.743237 0.628062793705342
439.663607 0.6776978522804533
441.661567 1.0
443.659527 0.6393790712304884

INCHIKEY: WVDDGKGOMKODPV-UHFFFAOYSA-N
NAME: Benzyl alcohol
RETENTION_INDEX: None
RETENTION_TIME: None
NUM PEAKS: 5
77.039125 0.5973109604369419
78.04695 0.12905571672647148
107.049689 0.24258166313440302
108.057514 1.0
109.060868 0.07635339680965435

INCHIKEY: WVQBLGZPHOPPFO-UHFFFAOYSA-N
NAME: Metolachlor
RETENTION_INDEX: None
RETENTION_TIME: None
NUM PEAKS: 5
73.065339 0.8413774968616806
76.979416 0.17386402019543648
119.086075 0.3250023863777271
283.133904 0.5773829732072132
285.130954 0.1858210685330776

INCHIKEY: WXPWZZHELZEVPO-UHFFFAOYSA-N
NAME: 4-Methylbenzophenone
RETENTION_INDEX: None
RETENTION_TIME: None
NUM PEAKS: 5
77.039125 0.30672050027613723
91.054775 0.39024475135512804
105.034039 0.7994239808241481
119.049689 0.8925801677674811
196.088814 1.0

INCHIKEY: WYEMLYFITZORAB-UHFFFAOYSA-N
NAME: Boscalid
RETENTION_INDEX: None
RETENTION_TIME: None
NUM PEAKS: 5
139.990315 1.0
141.987365 0.3236739601170962
202.042351 0.8205531700597202
342.032666 0.5943619185143513
344.029716 0.38614677267306385

INCHIKEY: XCSGPAVHZFQHGE-UHFFFAOYSA-N
NAME: Alachlor
RETENTION_INDEX: None
RETENTION_TIME: None
NUM PEAKS: 5
132.081324 0.04300590350760868
147.104799 0.04698109113142861
175.099713 0.037164086628856556
269.118254 0.1809248049061185
271.115304 0.058288990321461266

INCHIKEY: XEFQLINVKFYRCS-UHFFFAOYSA-N
NAME: Triclosan
RETENTION_INDEX: None
RETENTION_TIME: None
NUM PEAKS: 5
286.943334 1.0
287.951159 0.32958034187071156
288.940384 0.9600907993057519
289.948209 0.31195822952554525
290.937434 0.30713192802132516

INCHIKEY: XJKSTNDFUHDPQJ-UHFFFAOYSA-N
NAME: para-Terphenyl
RETENTION_INDEX: None
RETENTION_TIME: None
NUM PEAKS: 5
75.023475 0.23190492417818007
77.039125 0.24396152468779164
102.04695 0.14364475710022856
230.10955 1.0
231.112904 0.19710695611052112

INCHIKEY: XKJMBINCVNINCA-UHFFFAOYSA-N
NAME: Linuron
RETENTION_INDEX: None
RETENTION_TIME: None
NUM PEAKS: 5
144.961179 0.602990339119292
159.972078 0.975502002435985
161.969128 0.6264534956430748
248.01193 1.0
250.00898 0.6515744851419112

INCHIKEY: XOMKZKJEJBZBJJ-UHFFFAOYSA-N
NAME: 2,3-Dichlorobiphenyl
RETENTION_INDEX: None
RETENTION_TIME: None
NUM PEAKS: 5
77.039125 0.4660127912961154
152.0626 0.26762378125146696
187.031452 0.7015151040629785
222.000304 1.0
223.997354 0.6379358342806022

INCHIKEY: XQUXKZZNEFRCAW-UHFFFAOYSA-N
NAME: Fenpropathrin
RETENTION_INDEX: None
RETENTION_TIME: None
NUM PEAKS: 5
77.039125 0.675215432806299
82.07825 0.3438486681998965
97.101725 1.0
208.076238 0.5807433861511451
349.167791 0.5760200890749151

INCHIKEY: YFBPRJGDJKVWAH-UHFFFAOYSA-N
NAME: Methiocarb
RETENTION_INDEX: None
RETENTION_TIME: None
NUM PEAKS: 5
151.058146 0.23137427090624774
167.05306 0.4563169361595645
168.060885 0.1820873262823551
224.074523 0.25562810045611134
225.082348 0.4896949693328039

INCHIKEY: YFVOXLJXJBQDEF-UHFFFAOYSA-N
NAME: Isocarbophos
RETENTION_INDEX: None
RETENTION_TIME: None
NUM PEAKS: 5
78.010874 0.11932070091453528
109.982945 0.2694203271110288
202.009159 0.09401155164294142
230.004073 0.1383350448010652
289.053762 0.3934474151358787

INCHIKEY: YNEVBPNZHBAYOA-UHFFFAOYSA-N
NAME: Mexacarbate
RETENTION_INDEX: None
RETENTION_TIME: None
NUM PEAKS: 5
136.112624 0.18706902114176807
148.112624 0.2699481597154433
164.107538 0.8727654872449877
221.129001 0.3276501033350675
222.136826 0.706445989113288

INCHIKEY: YPCALTGLHFLNGA-UHFFFAOYSA-N
NAME: Pyracarbolid
RETENTION_INDEX: None
RETENTION_TIME: None
NUM PEAKS: 5
77.039125 0.145254792809443
92.050024 0.20694163582932681
125.060253 1.0
126.063607 0.07736259319700323
217.110277 0.3808436922855563

INCHIKEY: YVGGHNCTFXOJCH-UHFFFAOYSA-N
NAME: 4,4'-Dichlorodiphenyltrichloroethane
RETENTION_INDEX: None
RETENTION_TIME: None
NUM PEAKS: 5
111.000152 0.6821438796750126
235.008129 1.0
237.005179 0.649267300936017
316.945833 0.5801479687346257
318.942883 0.741825830766208

INCHIKEY: ZAGRQXMWMRUYRB-UHFFFAOYSA-N
NAME: 2,3,3',4',5,6-Hexachlorobiphenyl
RETENTION_INDEX: None
RETENTION_TIME: None
NUM PEAKS: 5
324.87261 0.2093275069300608
357.844412 0.5134915543177115
359.841462 1.0
361.838512 0.8024360094708469
363.835562 0.3335415323103436

INCHIKEY: ZCTQGTTXIYCGGC-UHFFFAOYSA-N
NAME: Benzyl salicylate
RETENTION_INDEX: None
RETENTION_TIME: None
NUM PEAKS: 5
91.054775 1.0
92.058129 0.07518391696883898
93.034039 0.3151696499617555
121.028953 0.4061263784130608
228.078642 0.4665826388376053

INCHIKEY: ZDYJWDIWLRZXDB-UHFFFAOYSA-N
NAME: 2,4'-Dichlorodiphenyldichloroethylene
RETENTION_INDEX: None
RETENTION_TIME: None
NUM PEAKS: 5
111.000152 0.7132441878450447
246.000304 0.4958797996289747
315.938008 0.7681150854543045
317.935058 1.0
319.932108 0.4753062563836243

INCHIKEY: ZFHGXWPMULPQSE-WTKPLQERSA-N
NAME: Tefluthrin
RETENTION_INDEX: None
RETENTION_TIME: None
NUM PEAKS: 5
177.032737 1.0
197.034486 0.6809522582110471
199.031536 0.22207536024207652
418.057051 0.5707516584172118
420.054101 0.18281890079848026

INCHIKEY: ZLIBICFPKPWGIZ-UHFFFAOYSA-N
NAME: Pyrimethanil
RETENTION_INDEX: None
RETENTION_TIME: None
NUM PEAKS: 5
77.039125 0.3421980871949277
92.050024 0.16011598496329427
107.060923 0.13145052833861673
198.103122 0.2044982751270875
199.110947 1.0

INCHIKEY: ZSDSQXJSNMTJDA-UHFFFAOYSA-N
NAME: Trifluralin
RETENTION_INDEX: None
RETENTION_TIME: None
NUM PEAKS: 5
75.004631 0.02735944041336336
277.067423 0.05882970559040702
306.070162 0.028071174331703093
335.109287 0.3650239451623697
336.112641 0.052980815094656665

INCHIKEY: ZYEMGPIYFIJGTP-UHFFFAOYSA-N
NAME: Methyleugenol
RETENTION_INDEX: None
RETENTION_TIME: None
NUM PEAKS: 5
79.018389 0.24484512726128352
148.052428 0.17784687816384115
151.075903 0.25264063010311305
163.075903 0.3651100562431686
178.099378 1.0

INCHIKEY: ZYHMJXZULPZUED-UHFFFAOYSA-N
NAME: Propargite
RETENTION_INDEX: None
RETENTION_TIME: None
NUM PEAKS: 5
133.101725 0.5108739779170712
134.073164 0.41455045911578464
149.096639 0.5734448404417569
247.169803 0.7083185459542224
350.155177 1.0

INCHIKEY: ZZYSLNWGKKDOML-UHFFFAOYSA-N
NAME: Tebufenpyrad
RETENTION_INDEX: None
RETENTION_TIME: None
NUM PEAKS: 5
131.086075 0.3159386645046266
132.0939 0.6774462782481734
147.117375 0.31972558772698617
333.160788 1.0
335.157838 0.32324324944422694

INCHIKEY: UYJUZNLFJAWNEZ-UHFFFAOYSA-N
NAME: Fuberidazole
RETENTION_INDEX: None
RETENTION_TIME: None
NUM PEAKS: 5
91.042199 0.12725637894166061
94.029288 0.12776493635375305
117.045273 0.09229677109646663
184.063662 1.0
185.067016 0.12038259978738612

INCHIKEY: WJCNZQLZVWNLKY-UHFFFAOYSA-N
NAME: Thiabendazole
RETENTION_INDEX: None
RETENTION_TIME: None
NUM PEAKS: 5
91.042199 0.12390476192339905
111.001694 0.09370062880854428
174.025169 0.25250616742189674
201.036068 1.0
202.039422 0.1103467959365617

INCHIKEY: FOIBFBMSLDGNHL-UHFFFAOYSA-N
NAME: Octachlorodibenzo-p-dioxin
RETENTION_INDEX: None
RETENTION_TIME: None
NUM PEAKS: 5
86.963766 0.3999672413341189
141.937704 0.4684603354553827
457.737694 0.8797703594151145
459.734744 1.0
461.731794 0.6228829182664176

INCHIKEY: FSPZPQQWDODWAU-UHFFFAOYSA-N
NAME: 1,2,3,7,8-Pentachlorodibenzo-p-dioxin
RETENTION_INDEX: None
RETENTION_TIME: None
NUM PEAKS: 5
320.885761 0.2349236740923891
353.857563 0.6173353125690213
355.854613 1.0
357.851663 0.6346022503064003
359.848713 0.2021882918205886

INCHIKEY: HGUFODBRKLSHSI-UHFFFAOYSA-N
NAME: 2,3,7,8-Tetrachlorodibenzo-p-dioxin
RETENTION_INDEX: None
RETENTION_TIME: None
NUM PEAKS: 5
108.984502 0.24705744460187215
284.927684 0.20133338661117586
319.896536 0.7716934003856121
321.893586 1.0
323.890636 0.47332110764598845

INCHIKEY: QIKHBBZEUNSCAF-UHFFFAOYSA-N
NAME: 1,2,7,9-Tetrachlorodibenzo-p-dioxin
RETENTION_INDEX: None
RETENTION_TIME: None
NUM PEAKS: 5
284.927684 0.23533711251153788
286.924734 0.22672375301507014
319.896536 0.7716934003856121
321.893586 1.0
323.890636 0.47332110764598845

INCHIKEY: WCLNVRQZUKYVAI-UHFFFAOYSA-N
NAME: 1,2,3,4,6,7,8-Heptachlorodibenzo-p-dioxin
RETENTION_INDEX: None
RETENTION_TIME: None
NUM PEAKS: 5
388.807815 0.3297122353461102
421.779617 0.441422119866948
423.776667 1.0
425.773717 0.967087871527677
427.770767 0.5124580595682589

INCHIKEY: WCYYQNSQJHPVMG-UHFFFAOYSA-N
NAME: 1,2,3,4,7,8-Hexachlorodibenzo-p-dioxin
RETENTION_INDEX: None
RETENTION_TIME: None
NUM PEAKS: 5
354.846788 0.41724035491659206
387.81859 0.5153401110851298
389.81564 1.0
391.81269 0.8056079553800817
393.80974 0.33364768543916923

INCHIKEY: FIPWRIJSWJWJAI-UHFFFAOYSA-N
NAME: Piperonyl butoxide
RETENTION_INDEX: None
RETENTION_TIME: None
NUM PEAKS: 5
87.080989 0.1750048843331444
145.122853 0.15221846411760728
164.047342 0.11483750110840635
338.20932 1.0
339.212674 0.2056116555730229

INCHIKEY: MUJOIMFVNIBMKC-UHFFFAOYSA-N
NAME: Fludioxonil
RETENTION_INDEX: None
RETENTION_TIME: None
NUM PEAKS: 5
182.048012 0.8158177062846614
183.051366 0.09837998320536362
198.042926 0.10174385886251755
248.039732 1.0
249.043086 0.1314695937264729

INCHIKEY: XEGGRYVFLWGFHI-UHFFFAOYSA-N
NAME: Bendiocarb
RETENTION_INDEX: None
RETENTION_TIME: None
NUM PEAKS: 5
107.013303 0.3512065507529234
149.060253 0.10603053710787638
165.055167 0.3259168470905574
166.062992 0.17547648420568498
223.084455 0.5195716933557446

INCHIKEY: ZMQAAUBTXCXRIC-UHFFFAOYSA-N
NAME: Safrole
RETENTION_INDEX: None
RETENTION_TIME: None
NUM PEAKS: 5
91.018389 0.1290721927361629
132.057514 0.1338061216535124
135.044603 0.2726779105091945
161.060253 0.15758639779623534
162.068078 1.0

INCHIKEY: KSMVNVHUTQZITP-UHFFFAOYSA-N
NAME: 2,3,7,8-Tetrachlorodibenzofuran
RETENTION_INDEX: None
RETENTION_TIME: None
NUM PEAKS: 5
268.93277 0.2821504358132068
270.92982 0.2781826338260319
303.901622 0.7617073531670582
305.898672 1.0
307.895722 0.48191407489160804

INCHIKEY: LVYBAQIVPKCOEE-UHFFFAOYSA-N
NAME: 1,2,3,4,7,8-Hexachlorodibenzofuran
RETENTION_INDEX: None
RETENTION_TIME: None
NUM PEAKS: 5
338.851874 0.2790120563352416
371.823676 0.5202462285338312
373.820726 1.0
375.817776 0.8165142803262405
377.814826 0.3505965949580624

INCHIKEY: PDMFRPIFZAKMLH-UHFFFAOYSA-N
NAME: 1,2,7,9-Tetrachlorodibenzofuran
RETENTION_INDEX: None
RETENTION_TIME: None
NUM PEAKS: 5
268.93277 0.3956758597501392
270.92982 0.3901115817504657
303.901622 0.7617073531670582
305.898672 1.0
307.895722 0.48191407489160804

INCHIKEY: RHIROFAGUQOFLU-UHFFFAOYSA-N
NAME: Octachlorodibenzofuran
RETENTION_INDEX: None
RETENTION_TIME: None
NUM PEAKS: 5
439.74573 0.34211680683547835
441.74278 0.8804379723369177
443.73983 1.0
445.73688 0.6420438020194663
447.73393 0.25700729852378434

INCHIKEY: SBMIVUVRFPGOEB-UHFFFAOYSA-N
NAME: 1,2,3,7,8-Pentachlorodibenzofuran
RETENTION_INDEX: None
RETENTION_TIME: None
NUM PEAKS: 5
302.893797 0.34739788410126754
304.890847 0.4519493316545487
337.862649 0.6138002250264658
339.859699 1.0
341.856749 0.6479574589657495

INCHIKEY: WDMKCPIVJOGHBF-UHFFFAOYSA-N
NAME: 1,2,3,4,6,7,8-Heptachlorodibenzofuran
RETENTION_INDEX: None
RETENTION_TIME: None
NUM PEAKS: 5
372.812901 0.33013919200520936
405.784703 0.4468938137568056
407.781753 1.0
409.778803 0.9665044873059634
411.775853 0.5201832249945342

INCHIKEY: ONKNPOPIGWHAQC-UHFFFAOYSA-N
NAME: Galaxolide
RETENTION_INDEX: None
RETENTION_TIME: None
NUM PEAKS: 5
77.039125 0.11335697386645986
91.054775 0.08937804418900892
243.174889 0.3628469317576364
258.198364 1.0
259.201718 0.19735909302412863

INCHIKEY: UELITFHSCLAHKR-UHFFFAOYSA-N
NAME: Acibenzolar-S-methyl
RETENTION_INDEX: None
RETENTION_TIME: None
NUM PEAKS: 5
74.99046 0.19681242656752473
106.995546 0.26684884881868115
134.99046 0.3985654995348099
162.996608 1.0
209.992154 0.6444015479053651

INCHIKEY: RRVIAQKBTUQODI-UHFFFAOYSA-N
NAME: Methabenzthiazuron
RETENTION_INDEX: None
RETENTION_TIME: None
NUM PEAKS: 5
108.003371 0.06582896329079774
163.032994 0.7490959983796074
164.036348 0.06594045226768876
164.040819 0.21297630844076196
221.062282 0.35277493293955187

INCHIKEY: XIGAUIHYSDTJHW-UHFFFAOYSA-N
NAME: Mefenacet
RETENTION_INDEX: None
RETENTION_TIME: None
NUM PEAKS: 5
106.065674 1.0
148.076238 0.2752143926955743
150.001359 0.23105275132750377
164.017009 0.3506700857838071
298.077597 0.49892790945572846

INCHIKEY: DQJCHOQLCLEDLL-UHFFFAOYSA-N
NAME: Tricyclazole
RETENTION_INDEX: None
RETENTION_TIME: None
NUM PEAKS: 5
162.025169 0.32764527918747655
188.028243 0.20219368879692967
189.036068 1.0
190.039422 0.09763313040118088
191.031864 0.044073446298229506

INCHIKEY: FZSVSABTBYGOQH-UHFFFAOYSA-N
NAME: Thiofanox
RETENTION_INDEX: None
RETENTION_TIME: None
NUM PEAKS: 5
88.022095 0.048614446277786535
144.084695 0.1085510079052951
160.079609 0.0556812968869526
171.113351 0.09427011366992007
218.108897 0.23048443776907862

INCHIKEY: CJPQIRJHIZUAQP-UHFFFAOYSA-N
NAME: Benalaxyl
RETENTION_INDEX: None
RETENTION_TIME: None
NUM PEAKS: 5
77.039125 0.28143311685548955
91.054775 1.0
105.070425 0.15431995745419375
119.049689 0.26506784445110243
325.167791 0.41931428771327106

INCHIKEY: LESVOLZBIFDZGS-UHFFFAOYSA-N
NAME: Vamidothion
RETENTION_INDEX: None
RETENTION_TIME: None
NUM PEAKS: 5
86.060588 0.6985810905024127
109.005453 0.28672640789053244
178.03603 0.8149070513387332
229.012195 0.4629846947125303
287.041483 1.0

INCHIKEY: LMVPQMGRYSRMIW-KRWDZBQOSA-N
NAME: Fenamidone
RETENTION_INDEX: None
RETENTION_TIME: None
NUM PEAKS: 5
77.039125 0.48972865291122825
92.050024 1.0
162.037745 0.38745556880527665
219.059208 0.6506374449684508
311.109232 0.5795390507321329

INCHIKEY: ZQEIXNIJLIKNTD-UHFFFAOYSA-N
NAME: Metalaxyl
RETENTION_INDEX: None
RETENTION_TIME: None
NUM PEAKS: 5
73.028953 0.23339336205100683
104.0626 0.08378840592011218
105.070425 0.15972839546030354
147.104799 0.17671876893711544
279.147055 0.29749527960582817

INCHIKEY: GUUHFMWKWLOQMM-NTCAYCPXSA-N
NAME: alpha-Hexylcinnamaldehyde
RETENTION_INDEX: None
RETENTION_TIME: None
NUM PEAKS: 5
77.039125 1.0
78.042479 0.0632714397839558
137.096639 0.5537872080016296
138.099993 0.05594144980365065
216.151414 0.03212400066296979

INCHIKEY: HMKKIXGYKWDQSV-UHFFFAOYSA-N
NAME: alpha-Amylcinnamaldehyde
RETENTION_INDEX: None
RETENTION_TIME: None
NUM PEAKS: 5
77.039125 0.21665315534989163
116.0626 0.21767464612366594
131.049689 0.18616085157712842
145.065339 0.3663529802294923
202.135764 1.0

INCHIKEY: KJPRLNWUNMBNBZ-QPJJXVBHSA-N
NAME: trans-Cinnamaldehyde
RETENTION_INDEX: None
RETENTION_TIME: None
NUM PEAKS: 5
76.0313 0.11314193685173493
77.039125 0.33554714511949063
103.054775 0.4654298900782996
104.0626 0.18333779645581036
132.057514 1.0

INCHIKEY: NGHOLYJTSCBCGC-UHFFFAOYSA-N
NAME: Benzyl cinnamate
RETENTION_INDEX: None
RETENTION_TIME: None
NUM PEAKS: 5
77.039125 0.3123272423780946
91.054775 1.0
103.054775 0.49833486642256064
131.049689 0.6690904339098916
238.099378 0.7692572856033731

INCHIKEY: FBOUIAKEJMZPQG-MLPAPPSSSA-N
NAME: Diniconazole
RETENTION_INDEX: None
RETENTION_TIME: None
NUM PEAKS: 5
72.057514 0.07420324054100931
87.080989 0.055946828521040215
268.00444 0.08205884322452425
325.074865 0.15958899087921102
327.071915 0.10149463052722459

INCHIKEY: LIPHCKNQPJXUQF-KAMYIIQDSA-N
NAME: alpha-Amylcinnamyl alcohol
RETENTION_INDEX: None
RETENTION_TIME: None
NUM PEAKS: 5
116.0626 0.2170350094181041
147.080989 0.4209599221623956
173.133025 0.2403775985938066
203.143589 0.4249005473625493
204.151414 1.0

INCHIKEY: OOCCDEMITAIZTP-QPJJXVBHSA-N
NAME: Cinnamyl alcohol
RETENTION_INDEX: None
RETENTION_TIME: None
NUM PEAKS: 5
77.039125 0.3209820601067433
103.054775 0.3786163148131047
104.0626 0.1540695229643719
133.065339 0.1501724343347015
134.073164 1.0

INCHIKEY: DUEPRVBVGDRKAG-UHFFFAOYSA-N
NAME: Carbofuran
RETENTION_INDEX: None
RETENTION_TIME: None
NUM PEAKS: 5
107.013303 0.21039680706964548
147.080989 0.26348967614427554
163.075903 0.6169043400938422
220.097366 0.20662153241001602
221.105191 0.6256763085309641

INCHIKEY: HAWJXYBZNNRMNO-UHFFFAOYSA-N
NAME: Furathiocarb
RETENTION_INDEX: None
RETENTION_TIME: None
NUM PEAKS: 5
105.034039 0.25666527881450635
107.013303 1.0
148.052428 0.2742477326642807
163.075903 0.983432375372077
382.156239 0.5140529769971822

INCHIKEY: IRCMYGHHKLLGHV-UHFFFAOYSA-N
NAME: Ethofumesate
RETENTION_INDEX: None
RETENTION_TIME: None
NUM PEAKS: 5
150.068078 0.09641644087568793
178.062992 0.10662265642064649
207.102117 1.0
208.105471 0.1309455459986481
286.087491 0.13180714637786897

INCHIKEY: WJGPNUBJBMCRQH-UHFFFAOYSA-N
NAME: Carbofuran phenol
RETENTION_INDEX: None
RETENTION_TIME: None
NUM PEAKS: 5
106.041864 0.21733023697988385
148.052428 0.15277260477074184
149.060253 0.2971891622362683
163.075903 0.27777777380952384
164.083728 1.0

INCHIKEY: ODZHLDRQCZXQFQ-UHFFFAOYSA-N
NAME: Chlorferone
RETENTION_INDEX: None
RETENTION_TIME: None
NUM PEAKS: 5
147.044603 0.12632314384802995
175.039517 0.35232808327028325
209.000544 0.18880520156191444
210.008369 1.0
212.005419 0.32586983934947933

INCHIKEY: ZYGHJZDHTFUPRJ-UHFFFAOYSA-N
NAME: Coumarin
RETENTION_INDEX: None
RETENTION_TIME: None
NUM PEAKS: 5
79.018389 0.28693782650603555
91.018389 0.10108150403905886
105.034039 0.14456861494129863
118.041864 0.32722384279348143
146.036778 1.0

INCHIKEY: DMYHGDXADUDKCQ-UHFFFAOYSA-N
NAME: Fenazaquin
RETENTION_INDEX: None
RETENTION_TIME: None
NUM PEAKS: 5
77.039125 0.28112773514862843
103.054775 0.28709141918760733
160.1252 0.29556705190746874
161.133025 0.2796243856329224
306.173212 1.0

INCHIKEY: IJJVMEJXYNJXOJ-UHFFFAOYSA-N
NAME: Fluquinconazole
RETENTION_INDEX: None
RETENTION_TIME: None
NUM PEAKS: 5
144.961179 0.4100331690220831
306.984119 1.0
308.981169 0.6399444899979022
375.008991 0.900158367041773
377.006041 0.5774830932403747

INCHIKEY: DSKJPMWIHSOYEA-UHFFFAOYSA-N
NAME: Bupirimate
RETENTION_INDEX: None
RETENTION_TIME: None
NUM PEAKS: 4
166.098036 0.0173165630562322
208.144986 1.0
209.14202 0.011000822862805994
209.14834 0.11931662343044351

INCHIKEY: FJDPATXIBIBRIM-QFMSAKRMSA-N
NAME: trans-Cyphenothrin
RETENTION_INDEX: None
RETENTION_TIME: None
NUM PEAKS: 5
122.10955 0.2315214797967854
123.117375 0.17125635957557594
208.076238 1.0
209.079592 0.15146549482523372
375.183441 0.2191902159013606

INCHIKEY: FJDPATXIBIBRIM-UHFFFAOYSA-N
NAME: cis-Cyphenothrin
RETENTION_INDEX: None
RETENTION_TIME: None
NUM PEAKS: 5
77.039125 0.3666773724512382
108.0939 0.21156728507382724
123.117375 1.0
208.076238 0.3455214987606208
375.183441 0.33957336861243426

INCHIKEY: GBIHOLCMZGAKNG-UHFFFAOYSA-N
NAME: Flucythrinate
RETENTION_INDEX: None
RETENTION_TIME: None
NUM PEAKS: 5
77.039125 0.5676973369817871
184.06997 0.3464280626958926
199.093445 1.0
208.076238 0.6934944994851492
451.159511 0.5395615753092473

INCHIKEY: GEPDYQSQVLXLEU-AATRIKPKSA-N
NAME: Mevinphos
RETENTION_INDEX: None
RETENTION_TIME: None
NUM PEAKS: 5
84.021128 0.08732179987388383
109.005453 0.939594195219222
115.039517 0.1627799098686541
193.026581 0.24250464143208017
224.04497 1.0

INCHIKEY: GOLXNESZZPUPJE-UHFFFAOYSA-N
NAME: Spiromesifen
RETENTION_INDEX: None
RETENTION_TIME: None
NUM PEAKS: 5
119.086075 0.10890159470855068
159.080989 0.1167039173830844
271.133417 0.07184204740281715
370.214406 0.2619171355067588
371.21776 0.06609786712534325

INCHIKEY: JXSJBGJIGXNWCI-UHFFFAOYSA-N
NAME: Malathion
RETENTION_INDEX: None
RETENTION_TIME: None
NUM PEAKS: 5
93.010539 0.1168021545351755
94.972046 0.05860871799900231
124.98261 0.07697034559994086
125.990435 0.03288784983388675
330.036062 0.2164416986765788

INCHIKEY: KAATUXNTWXVJKI-NSHGMRRFSA-N
NAME: cis-Cypermethrin
RETENTION_INDEX: None
RETENTION_TIME: None
NUM PEAKS: 5
77.039125 0.9168911189333506
163.008129 1.0
165.005179 0.6325298983970624
208.076238 0.9840348620207192
415.074195 0.45877025289347734

INCHIKEY: KAATUXNTWXVJKI-UHFFFAOYSA-N
NAME: trans-Cypermethrin
RETENTION_INDEX: None
RETENTION_TIME: None
NUM PEAKS: 5
77.039125 0.8914159940966627
163.008129 0.8975874509161372
165.005179 0.5677508991304631
208.076238 1.0
415.074195 0.3886472314303703

INCHIKEY: NYPJDWWKZLNGGM-RPWUZVMVSA-N
NAME: cis-Fenvalerate
RETENTION_INDEX: None
RETENTION_TIME: None
NUM PEAKS: 5
77.039125 0.7127895134284701
152.039277 0.7025280482556504
167.062752 1.0
208.076238 0.7914008982070725
419.128818 0.585159218250758

INCHIKEY: NYPJDWWKZLNGGM-UHFFFAOYSA-N
NAME: trans-Fenvalerate
RETENTION_INDEX: None
RETENTION_TIME: None
NUM PEAKS: 5
77.039125 0.5135044051692114
152.039277 0.5873825029771966
167.062752 1.0
208.076238 0.6848450914932421
419.128818 0.49359412393866753

INCHIKEY: OWZREIFADZCYQD-NSHGMRRFSA-N
NAME: Deltamethrin
RETENTION_INDEX: None
RETENTION_TIME: None
NUM PEAKS: 5
77.039125 1.0
93.070425 0.3819798128435146
208.076238 0.6770432564918657
252.905045 0.42129264307667535
504.971111 0.3042444086417105

INCHIKEY: QQODLKZGRKWIFG-CVAIRZPRSA-N
NAME: cis-Cyfluthrin_isomer2
RETENTION_INDEX: None
RETENTION_TIME: None
NUM PEAKS: 5
77.039125 0.842836602006533
163.008129 0.883259411347342
165.005179 0.5586879857177837
226.066816 1.0
433.064773 0.5238294719391998

INCHIKEY: QQODLKZGRKWIFG-QSFXBCCZSA-N
NAME: cis-Cyfluthrin_isomer1
RETENTION_INDEX: None
RETENTION_TIME: None
NUM PEAKS: 5
77.039125 1.0
163.008129 0.7875529040412785
165.005179 0.4981507583755417
226.066816 0.8081012467259189
433.064773 0.3998107304030144

INCHIKEY: QQODLKZGRKWIFG-UHFFFAOYSA-N
NAME: trans-Cyfluthrin_Isomer2
RETENTION_INDEX: None
RETENTION_TIME: None
NUM PEAKS: 5
77.039125 0.26900554007008237
150.000304 0.5087939616362197
151.997354 0.32739702681662236
163.008129 0.3243935047735529
226.066816 1.0

INCHIKEY: QQODLKZGRKWIFG-ZAAXVRCTSA-N
NAME: trans-Cyfluthrin_isomer1
RETENTION_INDEX: None
RETENTION_TIME: None
NUM PEAKS: 5
77.039125 0.8656356729036971
163.008129 1.0
165.005179 0.6325298983970624
226.066816 0.8756630006225261
433.064773 0.5852170411657258

INCHIKEY: RLLPVAHGXHCWKJ-HKUYNNGSSA-N
NAME: cis-Permethrin
RETENTION_INDEX: None
RETENTION_TIME: None
NUM PEAKS: 5
77.039125 0.38308020421409056
90.04695 0.18229009796650333
163.008129 0.22329826891069124
183.080989 1.0
390.078946 0.22328532249162514

INCHIKEY: RLLPVAHGXHCWKJ-MJGOQNOKSA-N
NAME: trans-Permethrin
RETENTION_INDEX: None
RETENTION_TIME: None
NUM PEAKS: 5
77.039125 0.6757126498754685
90.04695 0.37038988758495006
163.008129 0.43724515125822694
183.080989 1.0
390.078946 0.37234816454541386

INCHIKEY: SBNFWQZLDJGRLK-SFTDATJTSA-N
NAME: cis-Phenothrin
RETENTION_INDEX: None
RETENTION_TIME: None
NUM PEAKS: 5
77.039125 0.6368394707371786
90.04695 0.4016126293141514
123.117375 0.7865603487250372
183.080989 1.0
350.188192 0.6762104129209774

INCHIKEY: SBNFWQZLDJGRLK-UHFFFAOYSA-N
NAME: trans-Phenothrin
RETENTION_INDEX: None
RETENTION_TIME: None
NUM PEAKS: 5
93.034039 1.0
106.041864 0.8001903508425622
123.117375 0.2861627509253056
183.080989 0.3518387244415075
350.188192 0.265510197902927

INCHIKEY: SMKRKQBMYOFFMU-UHFFFAOYSA-N
NAME: cis-Prallethrin
RETENTION_INDEX: None
RETENTION_TIME: None
NUM PEAKS: 5
108.0939 0.19096599420826055
122.10955 0.16000479565392026
123.117375 1.0
133.065339 0.4167800331181468
300.172542 0.5798561067237586

INCHIKEY: ZCVAOQKBXKSDMS-UHFFFAOYSA-N
NAME: cis-Allethrin
RETENTION_INDEX: None
RETENTION_TIME: None
NUM PEAKS: 5
107.086075 0.15176366613352896
108.0939 0.14385350636403116
123.117375 0.8629706083286142
135.080989 0.5356212647204703
302.188192 0.451888169004394

INCHIKEY: ZXQYGBMAQZUVMI-GCMPRSNUSA-N
NAME: lambda-Cyhalothrin
RETENTION_INDEX: None
RETENTION_TIME: None
NUM PEAKS: 5
77.039125 0.9305463124882852
197.034486 0.8682294640484067
199.031536 0.2766632673151601
208.076238 1.0
449.100552 0.3971518951113021

INCHIKEY: HAPOJKSPCGLOOD-UHFFFAOYSA-N
NAME: 2,3-Benzofluorene
RETENTION_INDEX: None
RETENTION_TIME: None
NUM PEAKS: 5
75.023475 0.17923412868745534
87.023475 0.13385446795645273
215.086075 0.24690989615693154
216.0939 1.0
217.097254 0.18622085314832515

INCHIKEY: QUUNMPSDKIURJD-UHFFFAOYSA-N
NAME: Hydroxyfluoren-9-one
RETENTION_INDEX: None
RETENTION_TIME: None
NUM PEAKS: 5
78.010564 0.07810180522627683
168.057514 0.23172474446173624
195.044603 0.0957950975113253
196.052428 1.0
197.055782 0.14393025578230126

INCHIKEY: IKTHMQYJOWTSJO-UHFFFAOYSA-N
NAME: Celestolide
RETENTION_INDEX: None
RETENTION_TIME: None
NUM PEAKS: 5
103.054775 0.1094324947983149
214.135764 0.16827700894406872
229.159239 0.47685975839946765
244.182714 1.0
245.186068 0.1811936581958324

INCHIKEY: IMRYETFJNLKUHK-UHFFFAOYSA-N
NAME: Traseolide
RETENTION_INDEX: None
RETENTION_TIME: None
NUM PEAKS: 5
185.096639 0.2049170996021419
215.143589 0.5499408641367151
243.174889 0.16869213419347612
258.198364 1.0
259.201718 0.19735909302412863

INCHIKEY: VDBHOHJWUDKDRW-UHFFFAOYSA-N
NAME: Phantolide
RETENTION_INDEX: None
RETENTION_TIME: None
NUM PEAKS: 5
199.112289 0.13319885898380235
214.135764 0.12328582419106096
229.159239 0.46744502038632746
244.182714 1.0
245.186068 0.1811936581958324

INCHIKEY: WQINSVOOIJDOLJ-UHFFFAOYSA-N
NAME: Phosmet
RETENTION_INDEX: None
RETENTION_TIME: None
NUM PEAKS: 5
104.026214 0.9292610688191821
132.021128 0.43336200619576054
160.039852 1.0
161.047677 0.5557558201965141
205.037505 0.4880824922149379

INCHIKEY: JUVIOZPCNVVQFO-HBGVWJBISA-N
NAME: Rotenone
RETENTION_INDEX: None
RETENTION_TIME: None
NUM PEAKS: 5
162.031692 0.22122429693764
192.078642 0.5439030400054283
202.062992 0.1845583430459322
394.141634 1.0
395.144988 0.2507234776841535

INCHIKEY: CXBMCYHAMVGWJQ-CABCVRRESA-N
NAME: trans-Tetramethrin
RETENTION_INDEX: None
RETENTION_TIME: None
NUM PEAKS: 5
107.086075 0.17184622640922373
122.10955 0.14934427141649945
123.117375 1.0
164.071152 0.456673800919382
331.178355 0.5827683147743533

INCHIKEY: CXBMCYHAMVGWJQ-HUUCEWRRSA-N
NAME: cis-Tetramethrin
RETENTION_INDEX: None
RETENTION_TIME: None
NUM PEAKS: 5
108.057514 0.2050288769174512
108.0939 0.22728783088827798
123.117375 1.0
164.071152 0.46167671728013454
331.178355 0.5764506859980771

INCHIKEY: APQSQLNWAIULLK-UHFFFAOYSA-N
NAME: 1,5-Dimethylnaphthalene
RETENTION_INDEX: None
RETENTION_TIME: None
NUM PEAKS: 5
75.023475 0.10885293465921246
141.070425 0.2114259028859367
155.086075 0.18959444844475562
156.0939 1.0
157.097254 0.13273325396396352

INCHIKEY: CVXBEEMKQHEXEN-UHFFFAOYSA-N
NAME: Carbaryl
RETENTION_INDEX: None
RETENTION_TIME: None
NUM PEAKS: 5
115.054775 0.2784907088103161
127.054775 0.3363099491527718
143.049689 0.9384686575660424
144.057514 0.23198090362562257
201.078977 0.6180449523714934

INCHIKEY: CWLKTJOTWITYSI-UHFFFAOYSA-N
NAME: 1-Fluronaphthalene
RETENTION_INDEX: None
RETENTION_TIME: None
NUM PEAKS: 5
74.01565 0.06746356693539425
94.021878 0.06223315765237718
127.054775 0.1129032258064516
146.053178 1.0
147.056532 0.10881441221103769

INCHIKEY: CWRYPZZKDGJXCA-UHFFFAOYSA-N
NAME: Acenaphthene
RETENTION_INDEX: None
RETENTION_TIME: None
NUM PEAKS: 5
74.01565 0.11484792087123077
75.023475 0.10401414004487396
153.070425 0.22076406647578137
154.07825 1.0
155.081604 0.1318691337799089

INCHIKEY: FRASJONUBLZVQX-UHFFFAOYSA-N
NAME: 1,4-Naphthoquinone
RETENTION_INDEX: None
RETENTION_TIME: None
NUM PEAKS: 5
76.0313 0.23717893986390293
104.026214 0.20012437043393402
130.041864 0.3183928070767616
132.021128 0.3601160730729041
158.036778 1.0

INCHIKEY: GVEPBJHOBDJJJI-UHFFFAOYSA-N
NAME: Fluoranthene
RETENTION_INDEX: None
RETENTION_TIME: None
NUM PEAKS: 5
86.01565 0.09884613188107327
98.01565 0.10302148394311887
201.070425 0.10651430004895907
202.07825 1.0
203.081604 0.17468860834243607

INCHIKEY: HAXBIWFMXWRORI-UHFFFAOYSA-N
NAME: Benzo(k)fluoranthene
RETENTION_INDEX: None
RETENTION_TIME: None
NUM PEAKS: 5
86.01565 0.09844223863086815
87.023475 0.1143520870588065
99.023475 0.10019937011119456
252.0939 1.0
253.097254 0.21903695443615206

INCHIKEY: QHJMFSMPSZREIF-UHFFFAOYSA-N
NAME: 2,6-Dimethylnaphthalene
RETENTION_INDEX: None
RETENTION_TIME: None
NUM PEAKS: 5
75.023475 0.16052905027942488
76.0313 0.1387300202731056
141.070425 0.13989756350927385
155.086075 0.31455162255533603
156.0939 1.0

INCHIKEY: QIMMUPPBPVKWKM-UHFFFAOYSA-N
NAME: 2-Methylnaphthalene
RETENTION_INDEX: None
RETENTION_TIME: None
NUM PEAKS: 5
75.023475 0.11547152318273039
76.0313 0.11679231026416616
141.070425 0.26673253766119415
142.07825 1.0
143.081604 0.12113414294808202

INCHIKEY: QNLZIZAQLLYXTC-UHFFFAOYSA-N
NAME: 1,2-Dimethylnaphthalene
RETENTION_INDEX: None
RETENTION_TIME: None
NUM PEAKS: 5
141.070425 0.19944361427111923
154.07825 0.1428961344709648
155.086075 0.32662011854579814
156.0939 1.0
157.097254 0.13273325396396352

INCHIKEY: QPUYECUOLPXSFR-UHFFFAOYSA-N
NAME: 1-Methylnaphthalene
RETENTION_INDEX: None
RETENTION_TIME: None
NUM PEAKS: 5
75.023475 0.0824621930121845
127.054775 0.07856420635207556
141.070425 0.23443178536438797
142.07825 1.0
143.081604 0.12113414294808202

INCHIKEY: RJKGJBPXVHTNJL-UHFFFAOYSA-N
NAME: 1-Nitronaphthalene
RETENTION_INDEX: None
RETENTION_TIME: None
NUM PEAKS: 5
115.054775 0.10417809842937337
127.054775 1.0
128.058129 0.1081159380757587
143.049689 0.3497459251992773
173.047677 0.5817938148669057

INCHIKEY: SDDBCEWUYXVGCQ-UHFFFAOYSA-N
NAME: 1,3-Dimethylnaphthalene
RETENTION_INDEX: None
RETENTION_TIME: None
NUM PEAKS: 5
75.023475 0.13170756837720668
141.070425 0.13786168378874303
155.086075 0.19881225062746963
156.0939 1.0
157.097254 0.13273325396396352

INCHIKEY: XAABPYINPXYOLM-UHFFFAOYSA-N
NAME: 1,8-Dimethylnaphthalene
RETENTION_INDEX: None
RETENTION_TIME: None
NUM PEAKS: 5
75.023475 0.16397837431119927
87.023475 0.12381898870898672
141.070425 0.2633334816962152
156.0939 1.0
157.097254 0.13273325396396352

INCHIKEY: YEUHHUCOSQOCIX-UHFFFAOYSA-N
NAME: Benzo[b]naphtho[2,1-d]thiophene
RETENTION_INDEX: None
RETENTION_TIME: None
NUM PEAKS: 5
75.023475 0.09731771061117382
87.023475 0.07440781391048137
233.042496 0.12565459174699178
234.050321 1.0
235.053675 0.17669805694851315

INCHIKEY: YGYNBBAUIYTWBF-UHFFFAOYSA-N
NAME: 1,4-Dimethylnaphthalene
RETENTION_INDEX: None
RETENTION_TIME: None
NUM PEAKS: 5
75.023475 0.16165911380206707
76.0313 0.14270946427015108
155.086075 0.2466429422608597
156.0939 1.0
157.097254 0.13273325396396352

INCHIKEY: DQZCVNGCTZLGAQ-UHFFFAOYSA-N
NAME: Cycluron
RETENTION_INDEX: None
RETENTION_TIME: None
NUM PEAKS: 5
72.044938 0.18029266599689883
110.10955 0.20052517133656628
111.117375 0.1935501569952217
198.173212 1.0
199.176566 0.11924619051632299

INCHIKEY: UHXUZOCRWCRNSJ-UHFFFAOYSA-N
NAME: Methomyl
RETENTION_INDEX: None
RETENTION_TIME: None
NUM PEAKS: 5
88.022095 0.5119132765707526
104.017009 0.14130568927878012
115.050751 0.15415899459892857
147.022822 0.06275797135563196
162.046297 0.4667061518162281

INCHIKEY: MCWXGJITAZMZEV-UHFFFAOYSA-N
NAME: Dimethoate
RETENTION_INDEX: None
RETENTION_TIME: None
NUM PEAKS: 5
72.044938 0.14613812923046174
93.010539 0.5019737515062894
104.017009 0.36300984230966177
124.98261 1.0
228.999619 0.7236273817747714

INCHIKEY: XLNZEKHULJKQBA-UHFFFAOYSA-N
NAME: Terbufos
RETENTION_INDEX: None
RETENTION_TIME: None
NUM PEAKS: 5
230.973702 0.2948894281743309
232.969498 0.04063860281261274
287.036302 1.0
288.039656 0.09887977219377798
289.032098 0.13235712283810105

INCHIKEY: RDYMFSUJUZBWLH-UHFFFAOYSA-N
NAME: Endosulfan
RETENTION_INDEX: None
RETENTION_TIME: None
NUM PEAKS: 5
368.848023 0.6341206886037132
370.845073 1.0
372.842123 0.6284495090736434
405.813925 0.9816125233550934
407.810975 0.784631277115085

INCHIKEY: ASLWPAWFJZFCKF-UHFFFAOYSA-N
NAME: Tris(1,3-dichloro-2-propyl)phosphate
RETENTION_INDEX: None
RETENTION_TIME: None
NUM PEAKS: 5
76.007977 0.12857808749374905
110.976829 0.4939943317099847
112.973879 0.3191208751830079
429.880954 0.1641827916129951
431.878004 0.13232582520202368

INCHIKEY: BOSMZFBHAYFUBJ-UHFFFAOYSA-N
NAME: Tri-p-cresyl-phosphate
RETENTION_INDEX: None
RETENTION_TIME: None
NUM PEAKS: 5
79.054775 0.2637897429737801
91.054775 0.27122923577354957
107.049689 1.0
154.018364 0.20066520346758235
368.117742 0.35349182324733003

INCHIKEY: GTVWRXDRKAHEAD-UHFFFAOYSA-N
NAME: Tris(2-ethylhexyl) phosphate
RETENTION_INDEX: None
RETENTION_TIME: None
NUM PEAKS: 5
70.07825 0.048363085194396624
84.0939 0.03724087166472752
98.10955 0.04353901482578857
99.117375 0.12113296910847163
113.133025 0.12901860085596867

INCHIKEY: HQUQLFOMPYWACS-UHFFFAOYSA-N
NAME: Tris(2-chloroethyl) phosphate
RETENTION_INDEX: None
RETENTION_TIME: None
NUM PEAKS: 5
125.963741 0.06093583070527554
234.969371 0.05388641579737561
283.953873 0.4095780155674027
285.950923 0.39576052927016164
287.947973 0.1278934824808766

INCHIKEY: KRTSDMXIXPKRQR-AATRIKPKSA-N
NAME: Monocrotophos
RETENTION_INDEX: None
RETENTION_TIME: None
NUM PEAKS: 5
109.005453 0.8085809004283999
114.055502 0.3568524568279719
193.026581 0.41615101257184206
222.05313 0.1151735874333
223.060955 1.0

INCHIKEY: KVMPUXDNESXNOH-UHFFFAOYSA-N
NAME: Tris(1-chloro-2-propyl) phosphate
RETENTION_INDEX: None
RETENTION_TIME: None
NUM PEAKS: 5
77.015802 1.0
79.012852 0.3166190189190995
326.000823 0.16932988991913966
327.997873 0.16388427427229615
329.994923 0.05252443461381111

INCHIKEY: LIPMRGQQBZJCTM-UHFFFAOYSA-N
NAME: Tris(isopropylphenyl)phosphate
RETENTION_INDEX: None
RETENTION_TIME: None
NUM PEAKS: 5
119.049689 0.12192944836022827
119.086075 0.1494483010432162
120.057514 0.17570123384946398
135.080989 1.0
452.211642 0.11629153592779876

INCHIKEY: LLPMAOBOEQFPRE-UHFFFAOYSA-N
NAME: Tris(3,5-xylenyl)phosphate
RETENTION_INDEX: None
RETENTION_TIME: None
NUM PEAKS: 5
93.070425 0.33480614947437715
105.070425 0.37856953520362135
121.065339 1.0
168.034014 0.30991889830695835
410.164692 0.3835363460133126

INCHIKEY: LORSVOJSXMHDHF-UHFFFAOYSA-N
NAME: Tris(4-tert-butylphenyl) phosphate
RETENTION_INDEX: None
RETENTION_TIME: None
NUM PEAKS: 5
106.07825 0.34403154486234944
134.073164 0.6593905323381766
149.096639 1.0
181.041839 0.44945961240673765
196.065314 0.27723462603727644

INCHIKEY: RMLPZKRPSQVRAB-UHFFFAOYSA-N
NAME: Tri-m-cresyl phosphate
RETENTION_INDEX: None
RETENTION_TIME: None
NUM PEAKS: 5
79.054775 0.2967380047834836
91.054775 0.40003909251174136
107.049689 1.0
154.018364 0.3229592853856733
368.117742 0.5410751744742004

INCHIKEY: RYUJRXVZSJCHDZ-UHFFFAOYSA-N
NAME: Isodecyl diphenyl phosphate
RETENTION_INDEX: None
RETENTION_TIME: None
NUM PEAKS: 5
77.039125 0.459536555902033
93.034039 1.0
141.164325 0.18026184121846436
390.195992 0.6675876153149584
391.199346 0.15856812821004027

INCHIKEY: STCOOQWBFONSKY-UHFFFAOYSA-N
NAME: Tri-n-butyl-phosphate
RETENTION_INDEX: None
RETENTION_TIME: None
NUM PEAKS: 5
72.057514 0.028985143814011703
76.979239 0.04183950956918511
210.102092 0.0330396346598199
266.164692 0.6311696564003293
267.168046 0.08254775153899013

INCHIKEY: VEENJGZXVHKXNB-VOTSOKGWSA-N
NAME: Dicrotophos
RETENTION_INDEX: None
RETENTION_TIME: None
NUM PEAKS: 5
72.044938 0.2914512922621527
109.005453 0.5068781703420527
128.071152 0.45360108780131564
193.026581 0.7984832412703223
237.076605 0.7579878314044588

INCHIKEY: WTLBZVNBAKMVDP-UHFFFAOYSA-N
NAME: Tris(2-butoxyethyl) phosphate
RETENTION_INDEX: None
RETENTION_TIME: None
NUM PEAKS: 5
87.080989 0.21335565244793725
90.994889 0.06571962073474359
101.096639 0.16545424232613232
398.243334 0.35327544961256324
399.246688 0.07126977448036524

INCHIKEY: XZZNDPSIHUTMOC-UHFFFAOYSA-N
NAME: Triphenyl phosphate
RETENTION_INDEX: None
RETENTION_TIME: None
NUM PEAKS: 5
77.039125 0.37601129775139314
92.026214 0.12854439729087572
93.034039 1.0
140.002714 0.19427392786228126
326.070792 0.49303446227062575

INCHIKEY: YSMRWXYRXBRSND-UHFFFAOYSA-N
NAME: Tri-o-cresyl phosphate
RETENTION_INDEX: None
RETENTION_TIME: None
NUM PEAKS: 5
91.054775 1.0
107.049689 0.5532784880479854
366.102092 0.5517391161186271
367.109917 0.6115438163004225
368.117742 0.3634995733617489

INCHIKEY: AAPVQEMYVNZIOO-UHFFFAOYSA-N
NAME: Endosulfan sulphate
RETENTION_INDEX: None
RETENTION_TIME: None
NUM PEAKS: 5
262.85696 0.7718686015154528
384.842937 0.6165045486529271
386.839987 1.0
388.837037 0.6472737990160579
421.808839 0.6449555179742478

INCHIKEY: FHIVAFMUCKRCQO-UHFFFAOYSA-N
NAME: Diazinone
RETENTION_INDEX: None
RETENTION_TIME: None
NUM PEAKS: 5
109.040187 0.024651183694544797
290.097973 1.0
291.101327 0.13081175781807425
292.093769 0.04622616354920196
304.101047 0.06440260503372047

INCHIKEY: RLBIQVVOMOPOHC-UHFFFAOYSA-N
NAME: Methyl parathion
RETENTION_INDEX: None
RETENTION_TIME: None
NUM PEAKS: 5
93.010539 0.11379479255444121
124.98261 0.16329983935683767
251.001726 1.0
252.00508 0.07831938122590182
263.001726 0.23867461189175102

INCHIKEY: SBPBAQFWLVIOKP-UHFFFAOYSA-N
NAME: Chlorpyrifos
RETENTION_INDEX: None
RETENTION_TIME: None
NUM PEAKS: 5
121.041839 0.05279028863691351
153.01391 0.37992259906163084
195.912369 0.05058560970747284
348.926279 0.14460994189001197
350.923329 0.14023901071468972

INCHIKEY: WWJZWCUNLNYYAU-UHFFFAOYSA-N
NAME: Temephos
RETENTION_INDEX: None
RETENTION_TIME: None
NUM PEAKS: 5
124.98261 0.10846089207712308
313.012195 0.1147729373062063
341.007109 1.0
342.010463 0.14881617156074498
465.989719 0.22728276531270744

INCHIKEY: RZLXIANUDLLFHN-UHFFFAOYSA-N
NAME: 1,2,5,6-Tetrabromocyclooctane
RETENTION_INDEX: None
RETENTION_TIME: None
NUM PEAKS: 5
106.07825 0.4111975175689933
107.086075 0.7857486874653258
108.0939 1.0
265.93056 0.4411487514433831
267.92852 0.8621123027938871

INCHIKEY: OZQOUGTVRWVFRK-UHFFFAOYSA-N
NAME: 1,1-Dibromo-2,3,3,4,4,5-hexachloro-2-cyclopenta-2,4-dien-1-ylcyclooctane
RETENTION_INDEX: None
RETENTION_TIME: None
NUM PEAKS: 5
423.85354 0.2933026344034107
425.8515 0.2821053109824366
458.822392 0.32117142512706837
460.820352 0.31163487565193215
462.817402 0.25554706444099523

INCHIKEY: YFGYUFNIOHWBOB-UHFFFAOYSA-N
NAME: Pirimicarb
RETENTION_INDEX: None
RETENTION_TIME: None
NUM PEAKS: 5
72.044938 1.0
150.103122 0.15279013061037422
166.098036 0.4557913885889896
237.135149 0.17941439583975616
238.142974 0.4812344421989706

INCHIKEY: MIZGSAALSYARKU-UHFFFAOYSA-N
NAME: Cashmeran
RETENTION_INDEX: None
RETENTION_TIME: None
NUM PEAKS: 5
93.034039 0.11092533038614528
176.120114 0.11670069053988673
191.143589 0.39965025286363703
206.167064 1.0
207.170418 0.15473901723336805

INCHIKEY: PUYXTUJWRLOUCW-UHFFFAOYSA-N
NAME: Spiroxamine
RETENTION_INDEX: None
RETENTION_TIME: None
NUM PEAKS: 5
71.073499 0.07507534556371574
83.086075 0.08884520979052386
100.112624 0.348654335865403
297.266777 0.6087763889924025
298.270131 0.11970280039984635

INCHIKEY: WRPIRSINYZBGPK-UHFFFAOYSA-N
NAME: Quinoxyfen
RETENTION_INDEX: None
RETENTION_TIME: None
NUM PEAKS: 5
95.029703 0.7433392567229409
195.972078 0.24288044280673277
272.027843 0.21670763602080587
306.996695 1.0
308.993745 0.6408666159405334

INCHIKEY: YASYVMFAVPKPKE-UHFFFAOYSA-N
NAME: Acephate
RETENTION_INDEX: None
RETENTION_TIME: None
NUM PEAKS: 5
124.98261 1.0
136.016352 0.22978447822703246
151.993509 0.07746789311911541
167.988423 0.14371243734363584
183.011898 0.873322561674315

INCHIKEY: WEEGYLXZBRQIMU-UHFFFAOYSA-N
NAME: Eucalyptol
RETENTION_INDEX: None
RETENTION_TIME: None
NUM PEAKS: 5
96.0939 0.5320974041810044
126.104464 0.21356453084028865
139.112289 0.6673197230482201
153.127939 0.12993579504726824
154.135764 1.0

INCHIKEY: ZXFXBSWRVIQKOD-UHFFFAOYSA-N
NAME: cis-Heptachlor epoxide
RETENTION_INDEX: None
RETENTION_TIME: None
NUM PEAKS: 5
81.034039 1.0
352.844201 0.8645337770617988
354.841251 0.689638831960361
387.813053 0.7423010521710272
389.810103 0.7190147846292831

INCHIKEY: ARSRBNBHOADGJU-UHFFFAOYSA-N
NAME: 7,12-Dimethylbenz[a]anthracene
RETENTION_INDEX: None
RETENTION_TIME: None
NUM PEAKS: 5
75.023475 0.2164129948595849
87.023475 0.2208606766549108
99.023475 0.145121661634302
256.1252 1.0
257.128554 0.21745404669008278

INCHIKEY: CSHWQDPOILHKBI-AQZSQYOVSA-N
NAME: Perylene_2H12
RETENTION_INDEX: None
RETENTION_TIME: None
NUM PEAKS: 5
86.01565 0.10595897168817014
87.023475 0.12809163886032812
98.01565 0.10690380059351509
252.0939 1.0
253.097254 0.21903695443615206

INCHIKEY: CSHWQDPOILHKBI-UHFFFAOYSA-N
NAME: Perylene
RETENTION_INDEX: None
RETENTION_TIME: None
NUM PEAKS: 5
75.023475 0.1588501439609175
87.023475 0.15472048895294932
98.01565 0.12480304223822097
252.0939 1.0
253.097254 0.21903695443615206

INCHIKEY: DOWJXOHBNXRUOD-UHFFFAOYSA-N
NAME: 1-Methylphenanthrene
RETENTION_INDEX: None
RETENTION_TIME: None
NUM PEAKS: 5
76.0313 0.10983702276900215
177.070425 0.11098021265693854
191.086075 0.32937521960275795
192.0939 1.0
193.097254 0.16432677968176834

INCHIKEY: FTOVXSOBNPWTSH-UHFFFAOYSA-N
NAME: Benzofluoranthene
RETENTION_INDEX: None
RETENTION_TIME: None
NUM PEAKS: 5
75.023475 0.12930835515701455
87.023475 0.11823546187321438
251.086075 0.12122720374552219
252.0939 1.0
253.097254 0.21903695443615206

INCHIKEY: LHRCREOYAASXPZ-UHFFFAOYSA-N
NAME: Dibenzanthracene
RETENTION_INDEX: None
RETENTION_TIME: None
NUM PEAKS: 5
75.023475 0.16728261091199992
86.01565 0.13920704896478264
87.023475 0.1850996527598181
278.10955 1.0
279.112904 0.23945702788292525

INCHIKEY: SLGBZMMZGDRARJ-UHFFFAOYSA-N
NAME: Triphenylene
RETENTION_INDEX: None
RETENTION_TIME: None
NUM PEAKS: 5
75.023475 0.19771095469541888
87.023475 0.12348938322009963
99.023475 0.09170827419957815
228.0939 1.0
229.097254 0.1990195384343536

INCHIKEY: UORKIKBNUWJNJF-UHFFFAOYSA-N
NAME: 1,4-Chrysenequinone
RETENTION_INDEX: None
RETENTION_TIME: None
NUM PEAKS: 5
176.0626 0.26821335897593557
230.073164 0.4963172227616318
232.052428 0.2347659002760171
258.068078 1.0
259.071432 0.19844786352000102

INCHIKEY: VXFDOYXVHRYCGS-UHFFFAOYSA-N
NAME: Hydroxychrysene
RETENTION_INDEX: None
RETENTION_TIME: None
NUM PEAKS: 5
75.023475 0.062042334410384606
87.023475 0.06612868467438854
243.080989 0.15342688338846244
244.088814 1.0
245.092168 0.19593439896261328

INCHIKEY: WDECIBYCCFPHNR-UHFFFAOYSA-N
NAME: Benzanthracene/Benzophenanthrene
RETENTION_INDEX: None
RETENTION_TIME: None
NUM PEAKS: 5
75.023475 0.13500062362491602
86.01565 0.1037884614193981
87.023475 0.13944745919821838
228.0939 1.0
229.097254 0.1990195384343536

INCHIKEY: YEIHPPOCKIHUQJ-UHFFFAOYSA-N
NAME: Benzo[ghi]fluoranthene
RETENTION_INDEX: None
RETENTION_TIME: None
NUM PEAKS: 5
75.023475 0.13172780339844795
86.01565 0.11313698184366357
200.0626 0.11614767963904365
226.07825 1.0
227.081604 0.19722939393985567

INCHIKEY: YNPNZTXNASCQKK-LHNTUAQVSA-N
NAME: Phenanthrene_2H10
RETENTION_INDEX: None
RETENTION_TIME: None
NUM PEAKS: 5
75.023475 0.19066667224303974
87.023475 0.094529078056998
98.01565 0.09985085490462672
178.07825 1.0
179.081604 0.15559549741326786

INCHIKEY: YNPNZTXNASCQKK-UHFFFAOYSA-N
NAME: Phenanthrene
RETENTION_INDEX: None
RETENTION_TIME: None
NUM PEAKS: 5
74.01565 0.08504694264191581
75.023475 0.1089029073499126
87.023475 0.15724174585987868
178.07825 1.0
179.081604 0.15559549741326786

INCHIKEY: BAZVSMNPJJMILC-UHFFFAOYSA-N
NAME: Triadimenol
RETENTION_INDEX: None
RETENTION_TIME: None
NUM PEAKS: 5
71.049689 0.22771603602993584
72.057514 0.2369103204887969
87.080989 0.4050209679085729
111.000152 0.49587967278961265
295.108752 0.5119227178474784

INCHIKEY: ISRUGXGCCGIOQO-UHFFFAOYSA-N
NAME: Propoxur
RETENTION_INDEX: None
RETENTION_TIME: None
NUM PEAKS: 5
135.080989 0.11565007273323377
151.075903 0.23093463586644453
194.081716 0.05418820617569872
208.097366 0.08416309055262232
209.105191 0.40154994619589524

INCHIKEY: RLPZXGWCSHFKJI-UHFFFAOYSA-N
NAME: 2-Bromoallyl(2,4,6-tribromophenyl) ether
RETENTION_INDEX: None
RETENTION_TIME: None
NUM PEAKS: 5
118.94963 0.812068443602334
120.94759 0.7952576265006269
447.713144 0.6805334575345916
449.711104 1.0
451.709064 0.6470171870261504

INCHIKEY: RZLLIOPGUFOWOD-UHFFFAOYSA-N
NAME: Allyl 2,4,6-tribromophenyl ether
RETENTION_INDEX: None
RETENTION_TIME: None
NUM PEAKS: 5
290.884309 0.10384587036586464
367.804679 0.10104301893571133
369.802639 0.2965471333763064
371.800599 0.2836060830807301
373.798559 0.09362120251167089

INCHIKEY: WURBVZBTWMNKQT-UHFFFAOYSA-N
NAME: Triadimefon
RETENTION_INDEX: None
RETENTION_TIME: None
NUM PEAKS: 5
85.065339 0.6990110838484235
111.000152 1.0
126.995066 0.6333981962137875
208.027763 0.5525971810628398
293.093102 0.8489551330021832

INCHIKEY: ZFMSMUAANRJZFM-UHFFFAOYSA-N
NAME: Estragole
RETENTION_INDEX: None
RETENTION_TIME: None
NUM PEAKS: 5
117.070425 0.13029690297630106
121.065339 0.23708207912916848
133.065339 0.21267308941272708
147.080989 0.21960854260217288
148.088814 1.0

INCHIKEY: ZOTBXTZVPHCKPN-HTXNQAPBSA-N
NAME: Kresoxim-methyl
RETENTION_INDEX: None
RETENTION_TIME: None
NUM PEAKS: 5
91.054775 0.32209112477124596
107.049689 0.48423132770014654
116.050024 1.0
206.081716 0.22092731288783093
313.131405 0.8683755898955696

INCHIKEY: BJIOGJUNALELMI-ONEGZZNKSA-N
NAME: Isoeugenol
RETENTION_INDEX: None
RETENTION_TIME: None
NUM PEAKS: 5
133.065339 0.13359026682725073
149.060253 0.43646804796531896
163.075903 0.276595729787234
164.083728 1.0
165.087082 0.11059204372221135

INCHIKEY: BSWWXRFVMJHFBN-UHFFFAOYSA-N
NAME: 2,4,6-Tribromophenol
RETENTION_INDEX: None
RETENTION_TIME: None
NUM PEAKS: 5
250.853009 0.49282878386966933
327.773379 0.3461231998424206
329.771339 1.0
331.769299 0.9922577753294081
333.767259 0.31891152980533394

INCHIKEY: MRBKEAMVRSLQPH-UHFFFAOYSA-N
NAME: 2-tert-Butyl-4-methoxyphenol
RETENTION_INDEX: None
RETENTION_TIME: None
NUM PEAKS: 5
123.044603 0.18084953728083267
164.083728 0.16386043297692987
165.091553 0.6888459424380626
179.107203 0.24965145042085926
180.115028 0.8294133464674711

INCHIKEY: RRAFCDWBNXTKKO-UHFFFAOYSA-N
NAME: Eugenol
RETENTION_INDEX: None
RETENTION_TIME: None
NUM PEAKS: 5
137.060253 0.24064006685762396
149.060253 0.268351896498045
163.075903 0.17931031655172414
164.083728 1.0
165.087082 0.11059204372221135

INCHIKEY: DFBKLUNHFCTMDC-UHFFFAOYSA-N
NAME: Endrin
RETENTION_INDEX: None
RETENTION_TIME: None
NUM PEAKS: 5
342.901774 0.6127448198404206
344.898824 1.0
346.895874 0.636384428358409
379.867676 0.524877945049148
381.864726 0.4184498980028121

INCHIKEY: DSSYKIVIOFKYAU-UHFFFAOYSA-N
NAME: Camphor
RETENTION_INDEX: None
RETENTION_TIME: None
NUM PEAKS: 5
83.086075 0.2041885025126911
95.086075 0.359438916232063
110.10955 0.4527900050642692
151.112289 0.16838714273384048
152.120114 1.0

INCHIKEY: GVYLCNUFSHDAAW-UHFFFAOYSA-N
NAME: Mirex
RETENTION_INDEX: None
RETENTION_TIME: None
NUM PEAKS: 5
234.84426 0.6278846926642415
236.84131 1.0
238.83836 0.6545861475029929
543.620324 0.7523045681531567
545.617374 0.802255590380026

INCHIKEY: HCTWZIFNBBCVGM-UHFFFAOYSA-N
NAME: Endrin aldehyde
RETENTION_INDEX: None
RETENTION_TIME: None
NUM PEAKS: 5
342.901774 0.6127448198404206
344.898824 1.0
346.895874 0.636384428358409
379.867676 0.39260410206744156
381.864726 0.31299685577419983

INCHIKEY: HEOCBCNFKCOKBX-SDNWHVSQSA-N
NAME: Enzacamene
RETENTION_INDEX: None
RETENTION_TIME: None
NUM PEAKS: 5
77.039125 0.2192218590608892
91.054775 0.13764286606496756
95.086075 0.18935992982634062
254.167064 1.0
255.170418 0.1985078317119451

INCHIKEY: IZHZFAQWVKBTSL-UHFFFAOYSA-N
NAME: Endrin ketone
RETENTION_INDEX: None
RETENTION_TIME: None
NUM PEAKS: 5
309.929972 0.5347864375764005
342.901774 0.6127448198404206
344.898824 1.0
346.895874 0.636384428358409
379.867676 0.6315805120215364

INCHIKEY: JRJBVWJSTHECJK-LUAWRHEFSA-N
NAME: Isomethyl-alpha-ionone
RETENTION_INDEX: None
RETENTION_TIME: None
NUM PEAKS: 5
92.0626 0.17182745272427152
135.080989 0.16374500868796318
150.104464 0.24396345967826444
206.167064 1.0
207.170418 0.15473901723336805

INCHIKEY: NSSHGPBKKVJJMM-PKNBQFBNSA-N
NAME: delta-Iraldeine
RETENTION_INDEX: None
RETENTION_TIME: None
NUM PEAKS: 5
77.039125 0.17876481027869315
78.04695 0.16247092773218383
79.054775 0.31368052816954795
191.143589 0.2287750344681907
206.167064 1.0

INCHIKEY: NXLOLUFNDSBYTP-UHFFFAOYSA-N
NAME: Retene
RETENTION_INDEX: None
RETENTION_TIME: None
NUM PEAKS: 5
191.086075 0.1959139976981963
218.10955 0.19005283510017837
219.117375 0.41843409645182966
234.14085 1.0
235.144204 0.1948525818867883

INCHIKEY: QTYCMDBMOLSEAM-UHFFFAOYSA-N
NAME: Ipconazole
RETENTION_INDEX: None
RETENTION_TIME: None
NUM PEAKS: 5
82.040522 0.29650570801402487
83.048347 0.30110373612380686
125.015802 0.9919725372646397
127.012852 0.32228404393807947
333.160788 0.8234936140641215

INCHIKEY: VEMKTZHHVJILDY-VQTJNVASSA-N
NAME: trans-Resmethrin
RETENTION_INDEX: None
RETENTION_TIME: None
NUM PEAKS: 5
77.039125 0.3539841752884797
94.041864 0.3401989765608351
123.117375 0.8300860917543871
171.080989 1.0
338.188192 0.833370487694005

INCHIKEY: VEMKTZHHVJILDY-WOJBJXKFSA-N
NAME: cis-Resmethrin
RETENTION_INDEX: None
RETENTION_TIME: None
NUM PEAKS: 5
77.039125 0.169258974159591
91.054775 0.21257327968236894
123.117375 0.35320261712938167
171.080989 1.0
338.188192 0.5401261851583625

INCHIKEY: WTEVQBCEXWBHNA-JXMROGBWSA-N
NAME: Citral (Geranial)
RETENTION_INDEX: None
RETENTION_TIME: None
NUM PEAKS: 5
83.049689 0.15568426661077578
83.086075 0.15989041869760143
123.117375 0.07453041992077511
152.120114 0.6928778072528317
153.123468 0.07568615038653755

INCHIKEY: XMGQYMWWDOXHJM-UHFFFAOYSA-N
NAME: Limonene
RETENTION_INDEX: None
RETENTION_TIME: None
NUM PEAKS: 5
81.070425 0.12117598049898208
95.086075 0.229631417268812
121.101725 0.13536340808452962
135.117375 0.3094509618155339
136.1252 1.0

INCHIKEY: XWPZUHJBOLQNMN-UHFFFAOYSA-N
NAME: Metconazole
RETENTION_INDEX: None
RETENTION_TIME: None
NUM PEAKS: 5
82.040522 0.24411724099033807
83.048347 0.2432605978787871
125.015802 1.0
127.012852 0.32043298912383783
319.145138 0.6751840970830668

INCHIKEY: BBEAQIROQSPTKN-UHFFFAOYSA-N
NAME: Pyrene
RETENTION_INDEX: None
RETENTION_TIME: None
NUM PEAKS: 5
75.023475 0.11627412951656653
86.01565 0.11755865041341379
98.01565 0.1104799161144989
202.07825 1.0
203.081604 0.17468860834243607

INCHIKEY: FMMWHPNWAFZXNH-UHFFFAOYSA-N
NAME: Benzo(a)pyrene
RETENTION_INDEX: None
RETENTION_TIME: None
NUM PEAKS: 5
99.023475 0.08247486673339402
111.023475 0.08586113363380536
251.086075 0.15449075088058226
252.0939 1.0
253.097254 0.21903695443615206

INCHIKEY: GYFAGKUZYNFMBN-UHFFFAOYSA-N
NAME: Benzo(g,h,i)perylene
RETENTION_INDEX: None
RETENTION_TIME: None
NUM PEAKS: 5
86.01565 0.15650201817234796
98.01565 0.1230921223949876
275.086075 0.10454008471479721
276.0939 1.0
277.097254 0.24006205210582035

INCHIKEY: SXQBHARYMNFBPS-UHFFFAOYSA-N
NAME: Indeno[1,2,3-cd]pyrene
RETENTION_INDEX: None
RETENTION_TIME: None
NUM PEAKS: 5
86.01565 0.10409791323530891
87.023475 0.08905196089817778
275.086075 0.15443229239027012
276.0939 1.0
277.097254 0.24006205210582035

INCHIKEY: TXVHTIQJNYSSKO-UHFFFAOYSA-N
NAME: Benzo[e]pyrene
RETENTION_INDEX: None
RETENTION_TIME: None
NUM PEAKS: 5
87.023475 0.11527545183299245
99.023475 0.0733838438829665
251.086075 0.08519578236741003
252.0939 1.0
253.097254 0.21903695443615206

INCHIKEY: VPUGDVKSAQVFFS-UHFFFAOYSA-N
NAME: Coronene
RETENTION_INDEX: None
RETENTION_TIME: None
NUM PEAKS: 5
86.01565 0.12116018140720383
98.01565 0.09784419480519563
110.01565 0.1064690079879276
300.0939 1.0
301.097254 0.2625910350833178

INCHIKEY: YFIJJNAKSZUOLT-UHFFFAOYSA-N
NAME: Anthanthrene
RETENTION_INDEX: None
RETENTION_TIME: None
NUM PEAKS: 5
75.023475 0.08217773894099732
86.01565 0.11061800225733866
275.086075 0.14178383152074475
276.0939 1.0
277.097254 0.24006205210582035

INCHIKEY: OTMOUPHCTWPNSL-UHFFFAOYSA-N
NAME: Chlorpyrifos oxon
RETENTION_INDEX: None
RETENTION_TIME: None
NUM PEAKS: 5
137.036753 0.0950541805670265
195.912369 0.11242717225252234
197.909419 0.1087090273928269
332.949122 0.2316824956560402
334.946172 0.2250904529437224

INCHIKEY: BFPYWIDHMRZLRN-SLHNCBLASA-N
NAME: 17-alpha-Ethynylestradiol
RETENTION_INDEX: None
RETENTION_TIME: None
NUM PEAKS: 5
77.039125 0.1571172133545603
81.034039 0.19169207832607374
146.073164 0.16056284664665063
296.177628 1.0
297.180982 0.21360191209771287

INCHIKEY: DNXHEGUUPJUMQT-CBZIJGRNSA-N
NAME: Estrone
RETENTION_INDEX: None
RETENTION_TIME: None
NUM PEAKS: 5
120.057514 0.09082582487840815
145.065339 0.1392302742297083
146.073164 0.11937845137656126
270.161978 1.0
271.165332 0.19291260668926963

INCHIKEY: MUMGGOZAMZWBJJ-DYKIIFRCSA-N
NAME: Testosterone
RETENTION_INDEX: None
RETENTION_TIME: None
NUM PEAKS: 5
79.054775 0.1657139656351443
81.070425 0.13593135816770124
273.185453 0.1348988029357892
288.208928 1.0
289.212282 0.20306485380726802

INCHIKEY: RJKFOVLPORLFTN-LEKSSAKUSA-N
NAME: Progesterone
RETENTION_INDEX: None
RETENTION_TIME: None
NUM PEAKS: 5
79.054775 0.2578032823820656
80.0626 0.15987093245073894
81.070425 0.15525635749442757
314.224578 1.0
315.227932 0.22810967432794965

INCHIKEY: VOXZDWNPVJITMN-ZBRFXRBCSA-N
NAME: 17-beta-Estradiol
RETENTION_INDEX: None
RETENTION_TIME: None
NUM PEAKS: 5
81.034039 0.11472242125262003
105.034039 0.09976314075331363
146.073164 0.12403213775107073
272.177628 1.0
273.180982 0.19399449215141407

INCHIKEY: ZMYFCFLJBGAQRS-UHFFFAOYSA-N
NAME: Epoxiconazole
RETENTION_INDEX: None
RETENTION_TIME: None
NUM PEAKS: 5
95.029703 0.32621762457813086
120.037528 0.2504010547506457
121.045353 1.0
327.057466 0.26995128951429803
329.073116 0.6397795239042372

INCHIKEY: FSVJFNAIGNNGKK-UHFFFAOYSA-N
NAME: Praziquantel
RETENTION_INDEX: None
RETENTION_TIME: None
NUM PEAKS: 5
83.086075 0.049194880069552145
131.073499 0.046299254901618264
311.175951 1.0
312.179305 0.20998725076169594
312.183776 0.08262047942288761

INCHIKEY: DNRJTBAOUJJKDY-UHFFFAOYSA-N
NAME: Tonalide
RETENTION_INDEX: None
RETENTION_TIME: None
NUM PEAKS: 5
243.174889 1.0
244.178243 0.18617124527948692
257.190539 0.15839539375588435
258.198364 0.7587416511095187
259.201718 0.14974456410260448

INCHIKEY: PRLVTUNWOQKEAI-UHFFFAOYSA-N
NAME: Buprofezin
RETENTION_INDEX: None
RETENTION_TIME: None
NUM PEAKS: 5
77.039125 0.4400438939989773
104.050024 0.15932567029157657
105.057849 0.7236428445376817
119.037113 0.16660328849077793
305.156182 0.6339956259778748

INCHIKEY: FOXFZRUHNHCZPX-UHFFFAOYSA-N
NAME: Metribuzin
RETENTION_INDEX: None
RETENTION_TIME: None
NUM PEAKS: 5
89.017344 0.4087501940155661
167.093285 0.1689917223082641
199.065356 0.2797765050066988
213.081006 0.24547764926560686
214.088831 0.7110935399413336

INCHIKEY: AAEVYOVXGOFMJO-UHFFFAOYSA-N
NAME: Prometryn
RETENTION_INDEX: None
RETENTION_TIME: None
NUM PEAKS: 5
110.071822 0.04222697128043104
199.089166 0.06054886088483108
226.112641 0.15411999320058517
240.128291 0.13143092217590122
241.136116 0.3025163075539816

INCHIKEY: BCQMBFHBDZVHKU-UHFFFAOYSA-N
NAME: Terbumeton
RETENTION_INDEX: None
RETENTION_TIME: None
NUM PEAKS: 5
169.096359 0.08839897969778296
209.127659 0.04461051043808694
210.135484 0.20064173709784747
224.151134 0.10278887324604243
225.158959 0.38599567143111085

INCHIKEY: DDUIUBPJPOKOMV-UHFFFAOYSA-N
NAME: Methoprotryne
RETENTION_INDEX: None
RETENTION_TIME: None
NUM PEAKS: 5
74.006445 0.06168113729761778
93.020121 0.07361106374443384
141.023492 0.12076990349882422
271.14668 1.0
272.150034 0.12034244475306316

INCHIKEY: FZXISNSWEXTPMF-UHFFFAOYSA-N
NAME: Terbuthylazine
RETENTION_INDEX: None
RETENTION_TIME: None
NUM PEAKS: 5
173.046822 0.0632583471189998
214.085947 0.14253786928173018
228.101597 0.06045741105808158
229.109422 0.3370143397436478
231.106472 0.10773926790446359

INCHIKEY: IROINLKCQGIITA-UHFFFAOYSA-N
NAME: Terbutryn
RETENTION_INDEX: None
RETENTION_TIME: None
NUM PEAKS: 5
185.073516 0.07570810612409769
226.112641 0.2204537610782927
240.128291 0.222046111700006
241.136116 0.5761039436333695
242.13947 0.0630247668398815

INCHIKEY: ISEUFVQQFVOBCY-UHFFFAOYSA-N
NAME: Prometon
RETENTION_INDEX: None
RETENTION_TIME: None
NUM PEAKS: 5
84.068748 0.049496026413053826
183.112009 0.05890495144593201
210.135484 0.13452240403290316
224.151134 0.0955587990367014
225.158959 0.33355505992483

INCHIKEY: MGLWZSOBALDPEK-UHFFFAOYSA-N
NAME: Simetryn
RETENTION_INDEX: None
RETENTION_TIME: None
NUM PEAKS: 5
70.053098 0.09346814901562257
96.056172 0.09902299063209505
198.081341 0.1402490985122315
212.096991 0.10694204069068158
213.104816 0.462286416087827

INCHIKEY: MXWJVTOOROXGIU-UHFFFAOYSA-N
NAME: Atrazine
RETENTION_INDEX: None
RETENTION_TIME: None
NUM PEAKS: 5
70.053098 0.06719118506772188
128.996798 0.05987538459583379
200.070297 0.11860227376584186
215.093772 0.5014525283042168
217.090822 0.15990750482827407

INCHIKEY: RQVYBGPQFYCBGX-UHFFFAOYSA-N
NAME: Ametryn
RETENTION_INDEX: None
RETENTION_TIME: None
NUM PEAKS: 5
141.023492 0.08973757018914424
212.096991 0.2387804019794043
226.112641 0.30488660610675594
227.120466 0.8234841350295586
228.12382 0.08061018462287498

INCHIKEY: ZJMZZNVGNSWOOM-UHFFFAOYSA-N
NAME: Secbumeton
RETENTION_INDEX: None
RETENTION_TIME: None
NUM PEAKS: 5
169.096359 0.15679365130216233
196.119834 0.238174842477488
210.135484 0.17670285764201712
224.151134 0.21648140286104156
225.158959 1.0

INCHIKEY: BIWJNBZANLAXMG-GPTKHRSPSA-N
NAME: trans-Chlordane
RETENTION_INDEX: None
RETENTION_TIME: None
NUM PEAKS: 5
236.84131 0.6859774689816277
372.825964 0.9578988404238441
374.823014 0.9240269759357086
407.794816 0.9035857957856366
409.791866 1.0

INCHIKEY: BIWJNBZANLAXMG-KMMBHOGFSA-N
NAME: cis-Chlordane
RETENTION_INDEX: None
RETENTION_TIME: None
NUM PEAKS: 5
372.825964 1.0
374.823014 0.9646394138308507
376.820064 0.5140187105288894
407.794816 0.45296816684024516
409.791866 0.501300672224938

INCHIKEY: FRCCEHPWNOQAEU-UHFFFAOYSA-N
NAME: Heptachlor
RETENTION_INDEX: None
RETENTION_TIME: None
NUM PEAKS: 5
334.852237 0.5194757662875036
336.849287 1.0
338.846337 0.8054889017932652
371.818139 0.6670894070469161
373.815189 0.6440415527186633

INCHIKEY: QBYJBZPUGVGKQQ-SJJAEHHWSA-N
NAME: Aldrin
RETENTION_INDEX: None
RETENTION_TIME: None
NUM PEAKS: 5
262.85696 0.6212202149359184
326.90686 0.6180789975275702
328.90391 1.0
330.90096 0.6458488332035447
363.872762 0.6193119858659198

INCHIKEY: UGQQAJOWXNCOPY-HYXMNYRASA-N
NAME: syn-Dechlorane plus
RETENTION_INDEX: None
RETENTION_TIME: None
NUM PEAKS: 5
236.84131 1.0
238.83836 0.6377865410827951
651.714224 0.9201904167702609
653.711274 0.9985826101055434
655.708324 0.7282096367296443

INCHIKEY: UGQQAJOWXNCOPY-UHFFFAOYSA-N
NAME: anti-Dechlorane plus
RETENTION_INDEX: None
RETENTION_TIME: None
NUM PEAKS: 5
648.709349 0.5390433181046506
650.706399 0.9221970042579879
652.703449 1.0
654.700499 0.7402155484421222
656.697549 0.36897335322127034

